# vtk DataFile Version 5.1
vtk output
ASCII
DATASET UNSTRUCTURED_GRID
POINTS 289 double
0.03 0 0 0.030625 0 0 0.03125 0 0 
0.031875 0 0 0.0325 0 0 0.033125 0 0 
0.03375 0 0 0.034375 0 0 0.035 0 0 
0.035625 0 0 0.03625 0 0 0.036875 0 0 
0.0375 0 0 0.038125 0 0 0.03875 0 0 
0.039375 0 0 0.04 0 0 0.029878647258 0.0026956331369 0 
0.030501119076 0.0027517921606 0 0.031123590894 0.0028079511843 0 0.031746062712 0.002864110208 0 
0.03236853453 0.0029202692317 0 0.032991006348 0.0029764282554 0 0.033613478166 0.003032587279 0 
0.034235949984 0.0030887463027 0 0.034858421801 0.0031449053264 0 0.035480893619 0.0032010643501 0 
0.036103365437 0.0032572233738 0 0.036725837255 0.0033133823975 0 0.037348309073 0.0033695414212 0 
0.037970780891 0.0034257004448 0 0.038593252709 0.0034818594685 0 0.039215724527 0.0035380184922 0 
0.039838196345 0.0035941775159 0 0.029499161052 0.0054588915724 0 0.030113726908 0.0055726184801 0 
0.030728292763 0.0056863453879 0 0.031342858618 0.0058000722956 0 0.031957424474 0.0059137992034 0 
0.032571990329 0.0060275261112 0 0.033186556184 0.0061412530189 0 0.033801122039 0.0062549799267 0 
0.034415687895 0.0063687068344 0 0.03503025375 0.0064824337422 0 0.035644819605 0.0065961606499 0 
0.03625938546 0.0067098875577 0 0.036873951316 0.0068236144655 0 0.037488517171 0.0069373413732 0 
0.038103083026 0.007051068281 0 0.038717648881 0.0071647951887 0 0.039332214737 0.0072785220965 0 
0.028841968746 0.0082547464454 0 0.029442843094 0.0084267203296 0 0.030043717443 0.0085986942139 0 
0.030644591792 0.0087706680982 0 0.031245466141 0.0089426419825 0 0.03184634049 0.0091146158668 0 
0.032447214839 0.009286589751 0 0.033048089188 0.0094585636353 0 0.033648963537 0.0096305375196 0 
0.034249837885 0.0098025114039 0 0.034850712234 0.0099744852881 0 0.035451586583 0.010146459172 0 
0.036052460932 0.010318433057 0 0.036653335281 0.010490406941 0 0.03725420963 0.010662380825 0 
0.037855083979 0.01083435471 0 0.038455958327 0.011006328594 0 0.027893649032 0.011042841287 0 
0.02847476672 0.01127290048 0 0.029055884408 0.011502959674 0 0.029637002096 0.011733018867 0 
0.030218119785 0.011963078061 0 0.030799237473 0.012193137254 0 0.031380355161 0.012423196448 0 
0.031961472849 0.012653255641 0 0.032542590537 0.012883314835 0 0.033123708225 0.013113374028 0 
0.033704825914 0.013343433222 0 0.034285943602 0.013573492415 0 0.03486706129 0.013803551609 0 
0.035448178978 0.014033610802 0 0.036029296666 0.014263669996 0 0.036610414354 0.014493729189 0 
0.037191532042 0.014723788382 0 0.026648520205 0.013778837792 0 0.027203697709 0.014065896912 0 
0.027758875213 0.014352956033 0 0.028314052718 0.014640015154 0 0.028869230222 0.014927074274 0 
0.029424407726 0.015214133395 0 0.029979585231 0.015501192516 0 0.030534762735 0.015788251636 0 
0.031089940239 0.016075310757 0 0.031645117743 0.016362369878 0 0.032200295248 0.016649428998 0 
0.032755472752 0.016936488119 0 0.033310650256 0.01722354724 0 0.03386582776 0.01751060636 0 
0.034421005265 0.017797665481 0 0.034976182769 0.018084724602 0 0.035531360273 0.018371783722 0 
0.025109865337 0.016416292602 0 0.025632987531 0.016758298697 0 0.026156109726 0.017100304793 0 
0.02667923192 0.017442310889 0 0.027202354115 0.017784316985 0 0.027725476309 0.018126323081 0 
0.028248598504 0.018468329177 0 0.028771720698 0.018810335273 0 0.029294842893 0.019152341368 0 
0.029817965087 0.019494347464 0 0.030341087282 0.01983635356 0 0.030864209476 0.020178359656 0 
0.031387331671 0.020520365752 0 0.031910453865 0.020862371848 0 0.03243357606 0.021204377944 0 
0.032956698254 0.02154638404 0 0.033479820449 0.021888390135 0 0.023290595627 0.018908943792 0 
0.023775816369 0.019302880121 0 0.024261037112 0.01969681645 0 0.024746257854 0.020090752779 0 
0.025231478596 0.020484689108 0 0.025716699338 0.020878625437 0 0.026201920081 0.021272561766 0 
0.026687140823 0.021666498095 0 0.027172361565 0.022060434424 0 0.027657582307 0.022454370753 0 
0.02814280305 0.022848307082 0 0.028628023792 0.023242243411 0 0.029113244534 0.02363617974 0 
0.029598465276 0.024030116069 0 0.030083686019 0.024424052398 0 0.030568906761 0.024817988727 0 
0.031054127503 0.025211925056 0 0.021213203436 0.021213203436 0 0.021655145174 0.021655145174 0 
0.022097086912 0.022097086912 0 0.02253902865 0.02253902865 0 0.022980970389 0.022980970389 0 
0.023422912127 0.023422912127 0 0.023864853865 0.023864853865 0 0.024306795603 0.024306795603 0 
0.024748737342 0.024748737342 0 0.02519067908 0.02519067908 0 0.025632620818 0.025632620818 0 
0.026074562556 0.026074562556 0 0.026516504294 0.026516504294 0 0.026958446033 0.026958446033 0 
0.027400387771 0.027400387771 0 0.027842329509 0.027842329509 0 0.028284271247 0.028284271247 0 
0.018908943792 0.023290595627 0 0.019302880121 0.023775816369 0 0.01969681645 0.024261037112 0 
0.020090752779 0.024746257854 0 0.020484689108 0.025231478596 0 0.020878625437 0.025716699338 0 
0.021272561766 0.026201920081 0 0.021666498095 0.026687140823 0 0.022060434424 0.027172361565 0 
0.022454370753 0.027657582307 0 0.022848307082 0.02814280305 0 0.023242243411 0.028628023792 0 
0.02363617974 0.029113244534 0 0.024030116069 0.029598465276 0 0.024424052398 0.030083686019 0 
0.024817988727 0.030568906761 0 0.025211925056 0.031054127503 0 0.016416292602 0.025109865337 0 
0.016758298697 0.025632987531 0 0.017100304793 0.026156109726 0 0.017442310889 0.02667923192 0 
0.017784316985 0.027202354115 0 0.018126323081 0.027725476309 0 0.018468329177 0.028248598504 0 
0.018810335273 0.028771720698 0 0.019152341368 0.029294842893 0 0.019494347464 0.029817965087 0 
0.01983635356 0.030341087282 0 0.020178359656 0.030864209476 0 0.020520365752 0.031387331671 0 
0.020862371848 0.031910453865 0 0.021204377944 0.03243357606 0 0.02154638404 0.032956698254 0 
0.021888390135 0.033479820449 0 0.013778837792 0.026648520205 0 0.014065896912 0.027203697709 0 
0.014352956033 0.027758875213 0 0.014640015154 0.028314052718 0 0.014927074274 0.028869230222 0 
0.015214133395 0.029424407726 0 0.015501192516 0.029979585231 0 0.015788251636 0.030534762735 0 
0.016075310757 0.031089940239 0 0.016362369878 0.031645117743 0 0.016649428998 0.032200295248 0 
0.016936488119 0.032755472752 0 0.01722354724 0.033310650256 0 0.01751060636 0.03386582776 0 
0.017797665481 0.034421005265 0 0.018084724602 0.034976182769 0 0.018371783722 0.035531360273 0 
0.011042841287 0.027893649032 0 0.01127290048 0.02847476672 0 0.011502959674 0.029055884408 0 
0.011733018867 0.029637002096 0 0.011963078061 0.030218119785 0 0.012193137254 0.030799237473 0 
0.012423196448 0.031380355161 0 0.012653255641 0.031961472849 0 0.012883314835 0.032542590537 0 
0.013113374028 0.033123708225 0 0.013343433222 0.033704825914 0 0.013573492415 0.034285943602 0 
0.013803551609 0.03486706129 0 0.014033610802 0.035448178978 0 0.014263669996 0.036029296666 0 
0.014493729189 0.036610414354 0 0.014723788382 0.037191532042 0 0.0082547464454 0.028841968746 0 
0.0084267203296 0.029442843094 0 0.0085986942139 0.030043717443 0 0.0087706680982 0.030644591792 0 
0.0089426419825 0.031245466141 0 0.0091146158668 0.03184634049 0 0.009286589751 0.032447214839 0 
0.0094585636353 0.033048089188 0 0.0096305375196 0.033648963537 0 0.0098025114039 0.034249837885 0 
0.0099744852881 0.034850712234 0 0.010146459172 0.035451586583 0 0.010318433057 0.036052460932 0 
0.010490406941 0.036653335281 0 0.010662380825 0.03725420963 0 0.01083435471 0.037855083979 0 
0.011006328594 0.038455958327 0 0.0054588915724 0.029499161052 0 0.0055726184801 0.030113726908 0 
0.0056863453879 0.030728292763 0 0.0058000722956 0.031342858618 0 0.0059137992034 0.031957424474 0 
0.0060275261112 0.032571990329 0 0.0061412530189 0.033186556184 0 0.0062549799267 0.033801122039 0 
0.0063687068344 0.034415687895 0 0.0064824337422 0.03503025375 0 0.0065961606499 0.035644819605 0 
0.0067098875577 0.03625938546 0 0.0068236144655 0.036873951316 0 0.0069373413732 0.037488517171 0 
0.007051068281 0.038103083026 0 0.0071647951887 0.038717648881 0 0.0072785220965 0.039332214737 0 
0.0026956331369 0.029878647258 0 0.0027517921606 0.030501119076 0 0.0028079511843 0.031123590894 0 
0.002864110208 0.031746062712 0 0.0029202692317 0.03236853453 0 0.0029764282554 0.032991006348 0 
0.003032587279 0.033613478166 0 0.0030887463027 0.034235949984 0 0.0031449053264 0.034858421801 0 
0.0032010643501 0.035480893619 0 0.0032572233738 0.036103365437 0 0.0033133823975 0.036725837255 0 
0.0033695414212 0.037348309073 0 0.0034257004448 0.037970780891 0 0.0034818594685 0.038593252709 0 
0.0035380184922 0.039215724527 0 0.0035941775159 0.039838196345 0 4.9065389334e-18 0.03 0 
5.0598682751e-18 0.030625 0 5.2131976167e-18 0.03125 0 5.3665269584e-18 0.031875 0 
5.5198563001e-18 0.0325 0 5.6731856417e-18 0.033125 0 5.8265149834e-18 0.03375 0 
5.9798443251e-18 0.034375 0 6.1331736667e-18 0.035 0 6.2865030084e-18 0.035625 0 
6.4398323501e-18 0.03625 0 6.5931616917e-18 0.036875 0 6.7464910334e-18 0.0375 0 
6.8998203751e-18 0.038125 0 7.0531497167e-18 0.03875 0 7.2064790584e-18 0.039375 0 
7.3598084001e-18 0.04 0 
CELLS 257 1024
OFFSETS vtktypeint64
0 4 8 12 16 20 24 28 32 
36 40 44 48 52 56 60 64 68 
72 76 80 84 88 92 96 100 104 
108 112 116 120 124 128 132 136 140 
144 148 152 156 160 164 168 172 176 
180 184 188 192 196 200 204 208 212 
216 220 224 228 232 236 240 244 248 
252 256 260 264 268 272 276 280 284 
288 292 296 300 304 308 312 316 320 
324 328 332 336 340 344 348 352 356 
360 364 368 372 376 380 384 388 392 
396 400 404 408 412 416 420 424 428 
432 436 440 444 448 452 456 460 464 
468 472 476 480 484 488 492 496 500 
504 508 512 516 520 524 528 532 536 
540 544 548 552 556 560 564 568 572 
576 580 584 588 592 596 600 604 608 
612 616 620 624 628 632 636 640 644 
648 652 656 660 664 668 672 676 680 
684 688 692 696 700 704 708 712 716 
720 724 728 732 736 740 744 748 752 
756 760 764 768 772 776 780 784 788 
792 796 800 804 808 812 816 820 824 
828 832 836 840 844 848 852 856 860 
864 868 872 876 880 884 888 892 896 
900 904 908 912 916 920 924 928 932 
936 940 944 948 952 956 960 964 968 
972 976 980 984 988 992 996 1000 1004 
1008 1012 1016 1020 1024 
CONNECTIVITY vtktypeint64
0 17 18 1 1 18 19 2 2 
19 20 3 3 20 21 4 4 21 
22 5 5 22 23 6 6 23 24 
7 7 24 25 8 8 25 26 9 
9 26 27 10 10 27 28 11 11 
28 29 12 12 29 30 13 13 30 
31 14 14 31 32 15 15 32 33 
16 17 34 35 18 18 35 36 19 
19 36 37 20 20 37 38 21 21 
38 39 22 22 39 40 23 23 40 
41 24 24 41 42 25 25 42 43 
26 26 43 44 27 27 44 45 28 
28 45 46 29 29 46 47 30 30 
47 48 31 31 48 49 32 32 49 
50 33 34 51 52 35 35 52 53 
36 36 53 54 37 37 54 55 38 
38 55 56 39 39 56 57 40 40 
57 58 41 41 58 59 42 42 59 
60 43 43 60 61 44 44 61 62 
45 45 62 63 46 46 63 64 47 
47 64 65 48 48 65 66 49 49 
66 67 50 51 68 69 52 52 69 
70 53 53 70 71 54 54 71 72 
55 55 72 73 56 56 73 74 57 
57 74 75 58 58 75 76 59 59 
76 77 60 60 77 78 61 61 78 
79 62 62 79 80 63 63 80 81 
64 64 81 82 65 65 82 83 66 
66 83 84 67 68 85 86 69 69 
86 87 70 70 87 88 71 71 88 
89 72 72 89 90 73 73 90 91 
74 74 91 92 75 75 92 93 76 
76 93 94 77 77 94 95 78 78 
95 96 79 79 96 97 80 80 97 
98 81 81 98 99 82 82 99 100 
83 83 100 101 84 85 102 103 86 
86 103 104 87 87 104 105 88 88 
105 106 89 89 106 107 90 90 107 
108 91 91 108 109 92 92 109 110 
93 93 110 111 94 94 111 112 95 
95 112 113 96 96 113 114 97 97 
114 115 98 98 115 116 99 99 116 
117 100 100 117 118 101 102 119 120 
103 103 120 121 104 104 121 122 105 
105 122 123 106 106 123 124 107 107 
124 125 108 108 125 126 109 109 126 
127 110 110 127 128 111 111 128 129 
112 112 129 130 113 113 130 131 114 
114 131 132 115 115 132 133 116 116 
133 134 117 117 134 135 118 119 136 
137 120 120 137 138 121 121 138 139 
122 122 139 140 123 123 140 141 124 
124 141 142 125 125 142 143 126 126 
143 144 127 127 144 145 128 128 145 
146 129 129 146 147 130 130 147 148 
131 131 148 149 132 132 149 150 133 
133 150 151 134 134 151 152 135 136 
153 154 137 137 154 155 138 138 155 
156 139 139 156 157 140 140 157 158 
141 141 158 159 142 142 159 160 143 
143 160 161 144 144 161 162 145 145 
162 163 146 146 163 164 147 147 164 
165 148 148 165 166 149 149 166 167 
150 150 167 168 151 151 168 169 152 
153 170 171 154 154 171 172 155 155 
172 173 156 156 173 174 157 157 174 
175 158 158 175 176 159 159 176 177 
160 160 177 178 161 161 178 179 162 
162 179 180 163 163 180 181 164 164 
181 182 165 165 182 183 166 166 183 
184 167 167 184 185 168 168 185 186 
169 170 187 188 171 171 188 189 172 
172 189 190 173 173 190 191 174 174 
191 192 175 175 192 193 176 176 193 
194 177 177 194 195 178 178 195 196 
179 179 196 197 180 180 197 198 181 
181 198 199 182 182 199 200 183 183 
200 201 184 184 201 202 185 185 202 
203 186 187 204 205 188 188 205 206 
189 189 206 207 190 190 207 208 191 
191 208 209 192 192 209 210 193 193 
210 211 194 194 211 212 195 195 212 
213 196 196 213 214 197 197 214 215 
198 198 215 216 199 199 216 217 200 
200 217 218 201 201 218 219 202 202 
219 220 203 204 221 222 205 205 222 
223 206 206 223 224 207 207 224 225 
208 208 225 226 209 209 226 227 210 
210 227 228 211 211 228 229 212 212 
229 230 213 213 230 231 214 214 231 
232 215 215 232 233 216 216 233 234 
217 217 234 235 218 218 235 236 219 
219 236 237 220 221 238 239 222 222 
239 240 223 223 240 241 224 224 241 
242 225 225 242 243 226 226 243 244 
227 227 244 245 228 228 245 246 229 
229 246 247 230 230 247 248 231 231 
248 249 232 232 249 250 233 233 250 
251 234 234 251 252 235 235 252 253 
236 236 253 254 237 238 255 256 239 
239 256 257 240 240 257 258 241 241 
258 259 242 242 259 260 243 243 260 
261 244 244 261 262 245 245 262 263 
246 246 263 264 247 247 264 265 248 
248 265 266 249 249 266 267 250 250 
267 268 251 251 268 269 252 252 269 
270 253 253 270 271 254 255 272 273 
256 256 273 274 257 257 274 275 258 
258 275 276 259 259 276 277 260 260 
277 278 261 261 278 279 262 262 279 
280 263 263 280 281 264 264 281 282 
265 265 282 283 266 266 283 284 267 
267 284 285 268 268 285 286 269 269 
286 287 270 270 287 288 271 
CELL_TYPES 256
9
9
9
9
9
9
9
9
9
9
9
9
9
9
9
9
9
9
9
9
9
9
9
9
9
9
9
9
9
9
9
9
9
9
9
9
9
9
9
9
9
9
9
9
9
9
9
9
9
9
9
9
9
9
9
9
9
9
9
9
9
9
9
9
9
9
9
9
9
9
9
9
9
9
9
9
9
9
9
9
9
9
9
9
9
9
9
9
9
9
9
9
9
9
9
9
9
9
9
9
9
9
9
9
9
9
9
9
9
9
9
9
9
9
9
9
9
9
9
9
9
9
9
9
9
9
9
9
9
9
9
9
9
9
9
9
9
9
9
9
9
9
9
9
9
9
9
9
9
9
9
9
9
9
9
9
9
9
9
9
9
9
9
9
9
9
9
9
9
9
9
9
9
9
9
9
9
9
9
9
9
9
9
9
9
9
9
9
9
9
9
9
9
9
9
9
9
9
9
9
9
9
9
9
9
9
9
9
9
9
9
9
9
9
9
9
9
9
9
9
9
9
9
9
9
9
9
9
9
9
9
9
9
9
9
9
9
9
9
9
9
9
9
9
9
9
9
9
9
9
9
9
9
9
9
9

POINT_DATA 289
FIELD FieldData 11
P1 1 289 double
-10606215.52 3258950.255 -3964940.0706 -2235139.8951 9084593.0608 22007242.731 27799804.245 30894603.421 32154412.619 
32294631.319 31575553.279 29993096.503 27229488.819 22760600.124 14603808.937 4871820.7749 -1853790.4844 -10983196.43 
3374784.4098 -4105867.5035 -2314584.3557 9407490.3409 22789454.853 28787903.67 31992702.515 33297289.609 33442492.158 
32697855.644 31059152.981 28197317.297 23569589.126 15122877.888 5044981.8258 -1919680.4919 -11332279.08 3482046.3236 
-4236365.6818 -2388149.5749 9706491.7902 23513779.811 29702879.356 33009537.408 34355588.636 34505406.207 33737102.658 
32046316.553 29093522.177 24318709.355 15603533.435 5205328.191 -1980694.3467 -11645467.558 3578279.1101 -4353445.4767 
-2454150.5017 9974748.6315 24163626.576 30523773.327 33921816.985 35305068.826 35459026.883 34669489.845 32931975.741 
29897575.435 24990801.836 16034765.921 5349187.0563 -2035434.4959 -11914886.577 3661062.9436 -4454162.8594 -2510927.5115 
10205515.407 24722654.416 31229943.777 34706601.505 36121855.012 36279374.903 35471571.849 33693860.189 30589258.738 
25568966.456 16405731.783 5472941.0168 -2082524.47 -12133211.144 3728147.0888 -4535779.5136 -2556936.9432 10392518.003 
25175664.42 31802191.268 35342554.159 36783740.318 36944146.553 36121541.574 34311255.695 31149766.521 26037484.011 
16706345.159 5573225.4357 -2120683.9816 -12294120.811 3777589.4746 -4595932.6553 -2590846.8345 10530342.738 25509542.049 
32223949.362 35811264.259 37271563.313 37434096.842 36600582.543 34766288.798 31562872.21 26382791.022 16927903.36 
5647137.1015 -2148808.3214 -12392731.655 3807889.4278 -4632796.5194 -2611627.954 10614806.361 25714153.466 32482416.876 
36098505.539 37570517.616 37734354.822 36894154.926 35045148.355 31816037.241 26594406.747 17063681.662 5692432.6509 
-2166043.8607 -12425954.414 3818097.7175 -4645216.2415 -2618629.2746 10643262.812 25783088.642 32569496.589 36195279.358 
37671237.643 37835514.069 36993061.742 35139098.306 31901330.506 26665701.729 17109426.426 5707693.0734 -2171850.6478 
-12392731.655 3807889.4278 -4632796.5194 -2611627.954 10614806.361 25714153.466 32482416.876 36098505.539 37570517.616 
37734354.822 36894154.926 35045148.355 31816037.241 26594406.747 17063681.662 5692432.6509 -2166043.8607 -12294120.811 
3777589.4746 -4595932.6553 -2590846.8345 10530342.738 25509542.049 32223949.362 35811264.259 37271563.313 37434096.842 
36600582.543 34766288.798 31562872.21 26382791.022 16927903.36 5647137.1015 -2148808.3214 -12133211.144 3728147.0888 
-4535779.5136 -2556936.9432 10392518.003 25175664.42 31802191.268 35342554.159 36783740.318 36944146.552 36121541.574 
34311255.695 31149766.521 26037484.011 16706345.159 5573225.4357 -2120683.9816 -11914886.577 3661062.9436 -4454162.8594 
-2510927.5115 10205515.407 24722654.416 31229943.777 34706601.505 36121855.012 36279374.903 35471571.849 33693860.189 
30589258.738 25568966.456 16405731.783 5472941.0168 -2082524.47 -11645467.558 3578279.1101 -4353445.4767 -2454150.5017 
9974748.6315 24163626.576 30523773.327 33921816.985 35305068.826 35459026.883 34669489.845 32931975.741 29897575.435 
24990801.836 16034765.921 5349187.0563 -2035434.4959 -11332279.08 3482046.3236 -4236365.6817 -2388149.5749 9706491.7902 
23513779.811 29702879.356 33009537.408 34355588.636 34505406.207 33737102.658 32046316.553 29093522.177 24318709.355 
15603533.435 5205328.191 -1980694.3467 -10983196.43 3374784.4098 -4105867.5035 -2314584.3557 9407490.3409 22789454.853 
28787903.67 31992702.515 33297289.609 33442492.158 32697855.644 31059152.981 28197317.297 23569589.126 15122877.888 
5044981.8258 -1919680.4919 -10606215.52 3258950.255 -3964940.0706 -2235139.8951 9084593.0608 22007242.731 27799804.245 
30894603.421 32154412.619 32294631.319 31575553.279 29993096.503 27229488.819 22760600.124 14603808.937 4871820.7749 
-1853790.4844 
P2 1 289 double
-235592069.7 -111062699.76 -46940834.998 -11924452.804 -3292607.2716 -4679254.7451 -4018549.0727 -3531650.8685 -2938795.0268 
-2338975.492 -1745453.9153 -1172921.8028 -623206.92793 -166603.02263 628142.57886 -1085919.7706 -20852047.629 -243965811.71 
-115010245.18 -48609271.64 -12348288.341 -3409637.7131 -4845571.3453 -4161381.9502 -3657177.7308 -3043249.7798 -2422110.6224 
-1807493.2737 -1214611.426 -645357.818 -172524.65944 650468.8992 -1124517.0455 -21593200.195 -251719859.68 -118665654.73 
-50154236.576 -12740758.17 -3518007.3837 -4999579.7802 -4293644.5618 -3773415.0488 -3139974.4178 -2499093.3841 -1864941.4441 
-1253215.8319 -665869.44377 -178008.06885 671142.97265 -1160257.9512 -22279504.186 -258676603.25 -121945199.43 -51540341.602 
-13092872.57 -3615234.0196 -5137752.4077 -4412307.3649 -3877700.3479 -3226753.4143 -2568160.4488 -1916482.5479 -1287850.7678 
-684271.97665 -182927.65096 689691.24903 -1192323.8243 -22895239.463 -264661111.51 -124766413.42 -52732732.395 -13395777.445 
-3698872.8088 -5256614.8072 -4514386.523 -3967411.3209 -3301404.667 -2627575.0894 -1960820.5572 -1317645.32 -700102.67505 
-187159.69984 705647.32289 -1219908.3513 -23424923.044 -269510676.98 -127052593.23 -53698990.099 -13641237.381 -3766649.7698 
-5352935.3338 -4597106.6962 -4040108.8956 -3361898.549 -2675721.9341 -1996750.0053 -1341789.4309 -712931.13232 -190589.15426 
718577.37848 -1242261.5614 -23854153.834 -273084905.82 -128737554.47 -54411141.772 -13822146.37 -3816602.775 -5423925.5301 
-4658073.1542 -4093688.4937 -3406483.7762 -2711207.1424 -2023230.7427 -1359584.1341 -722385.96745 -193116.73224 728107.09368 
-1258736.3339 -24170505.697 -275275313.21 -129770155.26 -54847572.217 -13933013.47 -3847215.653 -5467430.7049 -4695435.4457 
-4126523.8696 -3433807.0998 -2732953.669 -2039459.0273 -1370489.3254 -728180.20772 -194665.71685 733947.22297 -1268832.6275 
-24364376.735 -276013278.48 -130118046.49 -54994609.024 -13970365.458 -3857529.3694 -5482087.9363 -4708023.0919 -4137586.3628 
-3443012.5397 -2740280.2427 -2044926.4624 -1374163.369 -730132.33229 -195187.5818 735914.8079 -1272234.1472 -24429693.394 
-275275313.21 -129770155.26 -54847572.217 -13933013.47 -3847215.653 -5467430.7049 -4695435.4457 -4126523.8696 -3433807.0998 
-2732953.669 -2039459.0273 -1370489.3254 -728180.20772 -194665.71685 733947.22297 -1268832.6275 -24364376.735 -273084905.82 
-128737554.47 -54411141.772 -13822146.37 -3816602.775 -5423925.5301 -4658073.1542 -4093688.4937 -3406483.7762 -2711207.1424 
-2023230.7427 -1359584.1341 -722385.96744 -193116.73224 728107.09367 -1258736.3339 -24170505.697 -269510676.98 -127052593.23 
-53698990.099 -13641237.381 -3766649.7698 -5352935.3338 -4597106.6962 -4040108.8956 -3361898.549 -2675721.9341 -1996750.0053 
-1341789.4309 -712931.13232 -190589.15427 718577.37848 -1242261.5614 -23854153.834 -264661111.51 -124766413.42 -52732732.395 
-13395777.445 -3698872.8088 -5256614.8072 -4514386.523 -3967411.3209 -3301404.667 -2627575.0894 -1960820.5572 -1317645.32 
-700102.67505 -187159.69983 705647.32289 -1219908.3513 -23424923.044 -258676603.25 -121945199.43 -51540341.602 -13092872.57 
-3615234.0196 -5137752.4077 -4412307.3649 -3877700.3479 -3226753.4143 -2568160.4488 -1916482.5479 -1287850.7678 -684271.97665 
-182927.65096 689691.24902 -1192323.8243 -22895239.463 -251719859.68 -118665654.73 -50154236.576 -12740758.17 -3518007.3837 
-4999579.7802 -4293644.5618 -3773415.0488 -3139974.4178 -2499093.3841 -1864941.4441 -1253215.8319 -665869.44377 -178008.06885 
671142.97265 -1160257.9512 -22279504.186 -243965811.71 -115010245.18 -48609271.64 -12348288.341 -3409637.7131 -4845571.3453 
-4161381.9502 -3657177.7308 -3043249.7798 -2422110.6224 -1807493.2737 -1214611.426 -645357.818 -172524.65944 650468.89919 
-1124517.0455 -21593200.195 -235592069.7 -111062699.76 -46940834.998 -11924452.804 -3292607.2716 -4679254.7451 -4018549.0727 
-3531650.8685 -2938795.0268 -2338975.492 -1745453.9153 -1172921.8028 -623206.92794 -166603.02263 628142.57886 -1085919.7705 
-20852047.629 
displacement 3 289 double
4.4621460946e-06 0 0 5.2345812522e-06 0 0 5.6426442127e-06 0 0 
5.8470658266e-06 0 0 5.9367048318e-06 0 0 5.9627383228e-06 0 0 
5.9540620837e-06 0 0 5.9272365901e-06 0 0 5.8918400601e-06 0 0 
5.8536816935e-06 0 0 5.8167276055e-06 0 0 5.7844210287e-06 0 0 
5.7608172697e-06 0 0 5.7518592295e-06 0 0 5.7673207717e-06 0 0 
5.8235736072e-06 0 0 5.9495229895e-06 0 0 4.6016761736e-06 4.1904300021e-07 0 
5.3982651657e-06 4.9158288103e-07 0 5.8190881427e-06 5.2990433524e-07 0 6.0299019641e-06 5.4910170004e-07 0 
6.1223439563e-06 5.5751975648e-07 0 6.1491915074e-06 5.5996457832e-07 0 6.1402439647e-06 5.5914978714e-07 0 
6.1125796453e-06 5.5663058784e-07 0 6.0760762755e-06 5.5330647701e-07 0 6.0367247073e-06 5.4972300034e-07 0 
5.9986150752e-06 5.4625261825e-07 0 5.9652982806e-06 5.4321868691e-07 0 5.9409564385e-06 5.4100204277e-07 0 
5.931718283e-06 5.4016078748e-07 0 5.9476633033e-06 5.4161279082e-07 0 6.0056751495e-06 5.4689553066e-07 0 
6.1355629343e-06 5.5872351789e-07 0 4.6872228202e-06 8.7185159175e-07 0 5.4986206591e-06 1.0227764623e-06 0 
5.9272668711e-06 1.1025072318e-06 0 6.1419997895e-06 1.1424488441e-06 0 6.2361603082e-06 1.159963266e-06 0 
6.263506964e-06 1.1650499082e-06 0 6.2543930836e-06 1.1633546717e-06 0 6.2262144755e-06 1.1581132814e-06 0 
6.1890324963e-06 1.15119721e-06 0 6.1489493697e-06 1.1437415078e-06 0 6.1101312673e-06 1.1365211076e-06 0 
6.0761951027e-06 1.1302087772e-06 0 6.0514007379e-06 1.1255968764e-06 0 6.041990842e-06 1.1238465793e-06 0 
6.0582322855e-06 1.1268675853e-06 0 6.1173225906e-06 1.1378587369e-06 0 6.2496250313e-06 1.1624677854e-06 0 
4.7091653958e-06 1.3519249937e-06 0 5.5243616797e-06 1.5859546229e-06 0 5.9550145387e-06 1.7095880727e-06 0 
6.1707526992e-06 1.7715229989e-06 0 6.2653540171e-06 1.7986815027e-06 0 6.2928286924e-06 1.8065690363e-06 0 
6.2836721467e-06 1.8039403405e-06 0 6.2553616244e-06 1.7958128488e-06 0 6.218005583e-06 1.7850885353e-06 0 
6.1777348129e-06 1.7735274505e-06 0 6.1387349889e-06 1.7623312337e-06 0 6.1046399569e-06 1.7525431031e-06 0 
6.0797295208e-06 1.745391721e-06 0 6.0702755739e-06 1.7426776461e-06 0 6.0865930493e-06 1.7473621287e-06 0 
6.1459599775e-06 1.7644054107e-06 0 6.2788817734e-06 1.8025651021e-06 0 4.659524235e-06 1.8483243142e-06 0 
5.4661272149e-06 2.1682848562e-06 0 5.8922403931e-06 2.3373139905e-06 0 6.1057043729e-06 2.4219901601e-06 0 
6.1993084613e-06 2.4591207132e-06 0 6.2264935153e-06 2.4699043885e-06 0 6.2174334922e-06 2.4663104892e-06 0 
6.1894214023e-06 2.4551987481e-06 0 6.1524591456e-06 2.4405366852e-06 0 6.1126128855e-06 2.4247306055e-06 0 
6.074024174e-06 2.4094233659e-06 0 6.0402885511e-06 2.3960412331e-06 0 6.0156407057e-06 2.3862640091e-06 0 
6.0062864165e-06 2.3825533813e-06 0 6.022431883e-06 2.3889579104e-06 0 6.081173001e-06 2.4122591384e-06 0 
6.2126936161e-06 2.4644302912e-06 0 4.5330812993e-06 2.3469017606e-06 0 5.3177959396e-06 2.7531702674e-06 0 
5.7323459199e-06 2.9677942758e-06 0 5.9400172456e-06 3.0753114738e-06 0 6.0310812515e-06 3.1224578323e-06 0 
6.0575285996e-06 3.1361503571e-06 0 6.0487144335e-06 3.1315870191e-06 0 6.0214624921e-06 3.1174779341e-06 0 
5.9855032598e-06 3.0988608434e-06 0 5.9467382856e-06 3.0787911424e-06 0 5.9091967346e-06 3.0593548416e-06 0 
5.8763765767e-06 3.0423629366e-06 0 5.8523975863e-06 3.0299483491e-06 0 5.8432971393e-06 3.0252367955e-06 0 
5.8590044752e-06 3.0333689185e-06 0 5.916151568e-06 3.0629555514e-06 0 6.0441031808e-06 3.1291996458e-06 0 
4.3281529842e-06 2.8318871003e-06 0 5.0773928032e-06 3.3221106636e-06 0 5.4732021028e-06 3.5810865487e-06 0 
5.6714851709e-06 3.7108220883e-06 0 5.75843242e-06 3.7677112033e-06 0 5.7836841553e-06 3.7842332772e-06 0 
5.7752684536e-06 3.7787269291e-06 0 5.7492484987e-06 3.7617022133e-06 0 5.7149148857e-06 3.7392379159e-06 0 
5.677902371e-06 3.7150208276e-06 0 5.6420579717e-06 3.6915680309e-06 0 5.6107215242e-06 3.6710647627e-06 0 
5.5878265589e-06 3.6560847107e-06 0 5.5791375184e-06 3.6503995184e-06 0 5.5941347682e-06 3.660212138e-06 0 
5.6486983959e-06 3.6959128246e-06 0 5.7708656632e-06 3.7758462072e-06 0 4.0471224516e-06 3.2869716628e-06 0 
4.747713513e-06 3.8559742057e-06 0 5.1178225893e-06 4.1565675434e-06 0 5.3032309748e-06 4.3071515982e-06 0 
5.3845326674e-06 4.3731828001e-06 0 5.4081447868e-06 4.3923599731e-06 0 5.4002755236e-06 4.3859687543e-06 0 
5.3759450657e-06 4.3662081647e-06 0 5.3438407625e-06 4.3401338524e-06 0 5.3092315007e-06 4.3120250753e-06 0 
5.2757145078e-06 4.2848034117e-06 0 5.2464127615e-06 4.2610052661e-06 0 5.2250043852e-06 4.2436179181e-06 0 
5.2168795312e-06 4.2370191148e-06 0 5.2309029973e-06 4.2484086234e-06 0 5.2819237638e-06 4.2898464141e-06 0 
5.3961586099e-06 4.3826250999e-06 0 3.6965746562e-06 3.6965746562e-06 0 4.336482935e-06 4.336482935e-06 0 
4.6745344389e-06 4.6745344389e-06 0 4.8438833892e-06 4.8438833892e-06 0 4.9181430095e-06 4.9181430095e-06 0 
4.9397099284e-06 4.9397099284e-06 0 4.9325222737e-06 4.9325222737e-06 0 4.9102992362e-06 4.9102992362e-06 0 
4.880975697e-06 4.880975697e-06 0 4.8493641702e-06 4.8493641702e-06 0 4.8187503037e-06 4.8187503037e-06 0 
4.7919865737e-06 4.7919865737e-06 0 4.7724325171e-06 4.7724325171e-06 0 4.76501141e-06 4.76501141e-06 0 
4.7778202118e-06 4.7778202118e-06 0 4.8244217353e-06 4.8244217353e-06 0 4.9287619529e-06 4.9287619529e-06 0 
3.2869716628e-06 4.0471224516e-06 0 3.8559742056e-06 4.747713513e-06 0 4.1565675434e-06 5.1178225893e-06 0 
4.3071515982e-06 5.3032309748e-06 0 4.3731828001e-06 5.3845326675e-06 0 4.3923599731e-06 5.4081447868e-06 0 
4.3859687543e-06 5.4002755236e-06 0 4.3662081647e-06 5.3759450657e-06 0 4.3401338524e-06 5.3438407625e-06 0 
4.3120250753e-06 5.3092315007e-06 0 4.2848034117e-06 5.2757145078e-06 0 4.2610052661e-06 5.2464127616e-06 0 
4.2436179181e-06 5.2250043852e-06 0 4.2370191148e-06 5.2168795312e-06 0 4.2484086234e-06 5.2309029973e-06 0 
4.2898464141e-06 5.2819237638e-06 0 4.3826250999e-06 5.3961586099e-06 0 2.8318871003e-06 4.3281529842e-06 0 
3.3221106636e-06 5.0773928032e-06 0 3.5810865487e-06 5.4732021028e-06 0 3.7108220883e-06 5.6714851709e-06 0 
3.7677112033e-06 5.75843242e-06 0 3.7842332772e-06 5.7836841553e-06 0 3.7787269291e-06 5.7752684536e-06 0 
3.7617022133e-06 5.7492484987e-06 0 3.7392379159e-06 5.7149148857e-06 0 3.7150208276e-06 5.677902371e-06 0 
3.6915680309e-06 5.6420579717e-06 0 3.6710647627e-06 5.6107215242e-06 0 3.6560847107e-06 5.5878265589e-06 0 
3.6503995184e-06 5.5791375184e-06 0 3.660212138e-06 5.5941347683e-06 0 3.6959128246e-06 5.6486983959e-06 0 
3.7758462072e-06 5.7708656632e-06 0 2.3469017606e-06 4.5330812993e-06 0 2.7531702674e-06 5.3177959396e-06 0 
2.9677942758e-06 5.7323459199e-06 0 3.0753114738e-06 5.9400172456e-06 0 3.1224578323e-06 6.0310812515e-06 0 
3.1361503571e-06 6.0575285996e-06 0 3.1315870191e-06 6.0487144335e-06 0 3.1174779341e-06 6.0214624921e-06 0 
3.0988608434e-06 5.9855032598e-06 0 3.0787911424e-06 5.9467382856e-06 0 3.0593548416e-06 5.9091967347e-06 0 
3.0423629366e-06 5.8763765767e-06 0 3.0299483491e-06 5.8523975863e-06 0 3.0252367955e-06 5.8432971393e-06 0 
3.0333689185e-06 5.8590044752e-06 0 3.0629555514e-06 5.916151568e-06 0 3.1291996458e-06 6.0441031808e-06 0 
1.8483243142e-06 4.659524235e-06 0 2.1682848562e-06 5.4661272149e-06 0 2.3373139905e-06 5.8922403931e-06 0 
2.4219901601e-06 6.1057043729e-06 0 2.4591207132e-06 6.1993084613e-06 0 2.4699043885e-06 6.2264935153e-06 0 
2.4663104892e-06 6.2174334922e-06 0 2.4551987481e-06 6.1894214023e-06 0 2.4405366852e-06 6.1524591456e-06 0 
2.4247306055e-06 6.1126128855e-06 0 2.4094233659e-06 6.074024174e-06 0 2.3960412331e-06 6.0402885511e-06 0 
2.3862640091e-06 6.0156407057e-06 0 2.3825533813e-06 6.0062864165e-06 0 2.3889579104e-06 6.022431883e-06 0 
2.4122591384e-06 6.081173001e-06 0 2.4644302912e-06 6.2126936162e-06 0 1.3519249937e-06 4.7091653958e-06 0 
1.5859546229e-06 5.5243616797e-06 0 1.7095880727e-06 5.9550145387e-06 0 1.7715229989e-06 6.1707526992e-06 0 
1.7986815027e-06 6.2653540171e-06 0 1.8065690363e-06 6.2928286924e-06 0 1.8039403405e-06 6.2836721467e-06 0 
1.7958128488e-06 6.2553616244e-06 0 1.7850885353e-06 6.218005583e-06 0 1.7735274505e-06 6.1777348129e-06 0 
1.7623312337e-06 6.1387349889e-06 0 1.7525431031e-06 6.1046399569e-06 0 1.745391721e-06 6.0797295208e-06 0 
1.7426776461e-06 6.0702755739e-06 0 1.7473621287e-06 6.0865930493e-06 0 1.7644054107e-06 6.1459599775e-06 0 
1.8025651021e-06 6.2788817734e-06 0 8.7185159175e-07 4.6872228203e-06 0 1.0227764623e-06 5.4986206591e-06 0 
1.1025072318e-06 5.9272668711e-06 0 1.1424488441e-06 6.1419997895e-06 0 1.159963266e-06 6.2361603082e-06 0 
1.1650499082e-06 6.263506964e-06 0 1.1633546717e-06 6.2543930836e-06 0 1.1581132814e-06 6.2262144755e-06 0 
1.15119721e-06 6.1890324963e-06 0 1.1437415078e-06 6.1489493698e-06 0 1.1365211076e-06 6.1101312673e-06 0 
1.1302087772e-06 6.0761951027e-06 0 1.1255968764e-06 6.0514007379e-06 0 1.1238465793e-06 6.041990842e-06 0 
1.1268675853e-06 6.0582322855e-06 0 1.1378587369e-06 6.1173225906e-06 0 1.1624677854e-06 6.2496250313e-06 0 
4.1904300021e-07 4.6016761736e-06 0 4.9158288103e-07 5.3982651657e-06 0 5.2990433524e-07 5.8190881427e-06 0 
5.4910170004e-07 6.0299019641e-06 0 5.5751975648e-07 6.1223439563e-06 0 5.5996457832e-07 6.1491915074e-06 0 
5.5914978714e-07 6.1402439647e-06 0 5.5663058784e-07 6.1125796453e-06 0 5.5330647701e-07 6.0760762755e-06 0 
5.4972300034e-07 6.0367247073e-06 0 5.4625261825e-07 5.9986150752e-06 0 5.4321868691e-07 5.9652982806e-06 0 
5.4100204277e-07 5.9409564385e-06 0 5.4016078748e-07 5.931718283e-06 0 5.4161279082e-07 5.9476633033e-06 0 
5.4689553066e-07 6.0056751495e-06 0 5.5872351789e-07 6.1355629343e-06 0 0 4.4621460946e-06 0 
0 5.2345812522e-06 0 0 5.6426442127e-06 0 0 5.8470658266e-06 0 
0 5.9367048318e-06 0 0 5.9627383228e-06 0 0 5.9540620837e-06 0 
0 5.9272365901e-06 0 0 5.8918400601e-06 0 0 5.8536816935e-06 0 
0 5.8167276055e-06 0 0 5.7844210287e-06 0 0 5.7608172697e-06 0 
0 5.7518592295e-06 0 0 5.7673207717e-06 0 0 5.8235736072e-06 0 
0 5.9495229895e-06 0 
displacement_x 1 289 double
4.4621460946e-06 5.2345812522e-06 5.6426442127e-06 5.8470658266e-06 5.9367048318e-06 5.9627383228e-06 5.9540620837e-06 5.9272365901e-06 5.8918400601e-06 
5.8536816935e-06 5.8167276055e-06 5.7844210287e-06 5.7608172697e-06 5.7518592295e-06 5.7673207717e-06 5.8235736072e-06 5.9495229895e-06 4.6016761736e-06 
5.3982651657e-06 5.8190881427e-06 6.0299019641e-06 6.1223439563e-06 6.1491915074e-06 6.1402439647e-06 6.1125796453e-06 6.0760762755e-06 6.0367247073e-06 
5.9986150752e-06 5.9652982806e-06 5.9409564385e-06 5.931718283e-06 5.9476633033e-06 6.0056751495e-06 6.1355629343e-06 4.6872228202e-06 5.4986206591e-06 
5.9272668711e-06 6.1419997895e-06 6.2361603082e-06 6.263506964e-06 6.2543930836e-06 6.2262144755e-06 6.1890324963e-06 6.1489493697e-06 6.1101312673e-06 
6.0761951027e-06 6.0514007379e-06 6.041990842e-06 6.0582322855e-06 6.1173225906e-06 6.2496250313e-06 4.7091653958e-06 5.5243616797e-06 5.9550145387e-06 
6.1707526992e-06 6.2653540171e-06 6.2928286924e-06 6.2836721467e-06 6.2553616244e-06 6.218005583e-06 6.1777348129e-06 6.1387349889e-06 6.1046399569e-06 
6.0797295208e-06 6.0702755739e-06 6.0865930493e-06 6.1459599775e-06 6.2788817734e-06 4.659524235e-06 5.4661272149e-06 5.8922403931e-06 6.1057043729e-06 
6.1993084613e-06 6.2264935153e-06 6.2174334922e-06 6.1894214023e-06 6.1524591456e-06 6.1126128855e-06 6.074024174e-06 6.0402885511e-06 6.0156407057e-06 
6.0062864165e-06 6.022431883e-06 6.081173001e-06 6.2126936161e-06 4.5330812993e-06 5.3177959396e-06 5.7323459199e-06 5.9400172456e-06 6.0310812515e-06 
6.0575285996e-06 6.0487144335e-06 6.0214624921e-06 5.9855032598e-06 5.9467382856e-06 5.9091967346e-06 5.8763765767e-06 5.8523975863e-06 5.8432971393e-06 
5.8590044752e-06 5.916151568e-06 6.0441031808e-06 4.3281529842e-06 5.0773928032e-06 5.4732021028e-06 5.6714851709e-06 5.75843242e-06 5.7836841553e-06 
5.7752684536e-06 5.7492484987e-06 5.7149148857e-06 5.677902371e-06 5.6420579717e-06 5.6107215242e-06 5.5878265589e-06 5.5791375184e-06 5.5941347682e-06 
5.6486983959e-06 5.7708656632e-06 4.0471224516e-06 4.747713513e-06 5.1178225893e-06 5.3032309748e-06 5.3845326674e-06 5.4081447868e-06 5.4002755236e-06 
5.3759450657e-06 5.3438407625e-06 5.3092315007e-06 5.2757145078e-06 5.2464127615e-06 5.2250043852e-06 5.2168795312e-06 5.2309029973e-06 5.2819237638e-06 
5.3961586099e-06 3.6965746562e-06 4.336482935e-06 4.6745344389e-06 4.8438833892e-06 4.9181430095e-06 4.9397099284e-06 4.9325222737e-06 4.9102992362e-06 
4.880975697e-06 4.8493641702e-06 4.8187503037e-06 4.7919865737e-06 4.7724325171e-06 4.76501141e-06 4.7778202118e-06 4.8244217353e-06 4.9287619529e-06 
3.2869716628e-06 3.8559742056e-06 4.1565675434e-06 4.3071515982e-06 4.3731828001e-06 4.3923599731e-06 4.3859687543e-06 4.3662081647e-06 4.3401338524e-06 
4.3120250753e-06 4.2848034117e-06 4.2610052661e-06 4.2436179181e-06 4.2370191148e-06 4.2484086234e-06 4.2898464141e-06 4.3826250999e-06 2.8318871003e-06 
3.3221106636e-06 3.5810865487e-06 3.7108220883e-06 3.7677112033e-06 3.7842332772e-06 3.7787269291e-06 3.7617022133e-06 3.7392379159e-06 3.7150208276e-06 
3.6915680309e-06 3.6710647627e-06 3.6560847107e-06 3.6503995184e-06 3.660212138e-06 3.6959128246e-06 3.7758462072e-06 2.3469017606e-06 2.7531702674e-06 
2.9677942758e-06 3.0753114738e-06 3.1224578323e-06 3.1361503571e-06 3.1315870191e-06 3.1174779341e-06 3.0988608434e-06 3.0787911424e-06 3.0593548416e-06 
3.0423629366e-06 3.0299483491e-06 3.0252367955e-06 3.0333689185e-06 3.0629555514e-06 3.1291996458e-06 1.8483243142e-06 2.1682848562e-06 2.3373139905e-06 
2.4219901601e-06 2.4591207132e-06 2.4699043885e-06 2.4663104892e-06 2.4551987481e-06 2.4405366852e-06 2.4247306055e-06 2.4094233659e-06 2.3960412331e-06 
2.3862640091e-06 2.3825533813e-06 2.3889579104e-06 2.4122591384e-06 2.4644302912e-06 1.3519249937e-06 1.5859546229e-06 1.7095880727e-06 1.7715229989e-06 
1.7986815027e-06 1.8065690363e-06 1.8039403405e-06 1.7958128488e-06 1.7850885353e-06 1.7735274505e-06 1.7623312337e-06 1.7525431031e-06 1.745391721e-06 
1.7426776461e-06 1.7473621287e-06 1.7644054107e-06 1.8025651021e-06 8.7185159175e-07 1.0227764623e-06 1.1025072318e-06 1.1424488441e-06 1.159963266e-06 
1.1650499082e-06 1.1633546717e-06 1.1581132814e-06 1.15119721e-06 1.1437415078e-06 1.1365211076e-06 1.1302087772e-06 1.1255968764e-06 1.1238465793e-06 
1.1268675853e-06 1.1378587369e-06 1.1624677854e-06 4.1904300021e-07 4.9158288103e-07 5.2990433524e-07 5.4910170004e-07 5.5751975648e-07 5.5996457832e-07 
5.5914978714e-07 5.5663058784e-07 5.5330647701e-07 5.4972300034e-07 5.4625261825e-07 5.4321868691e-07 5.4100204277e-07 5.4016078748e-07 5.4161279082e-07 
5.4689553066e-07 5.5872351789e-07 0 0 0 0 0 0 0 
0 0 0 0 0 0 0 0 0 
0 
displacement_y 1 289 double
0 0 0 0 0 0 0 0 0 
0 0 0 0 0 0 0 0 4.1904300021e-07 
4.9158288103e-07 5.2990433524e-07 5.4910170004e-07 5.5751975648e-07 5.5996457832e-07 5.5914978714e-07 5.5663058784e-07 5.5330647701e-07 5.4972300034e-07 
5.4625261825e-07 5.4321868691e-07 5.4100204277e-07 5.4016078748e-07 5.4161279082e-07 5.4689553066e-07 5.5872351789e-07 8.7185159175e-07 1.0227764623e-06 
1.1025072318e-06 1.1424488441e-06 1.159963266e-06 1.1650499082e-06 1.1633546717e-06 1.1581132814e-06 1.15119721e-06 1.1437415078e-06 1.1365211076e-06 
1.1302087772e-06 1.1255968764e-06 1.1238465793e-06 1.1268675853e-06 1.1378587369e-06 1.1624677854e-06 1.3519249937e-06 1.5859546229e-06 1.7095880727e-06 
1.7715229989e-06 1.7986815027e-06 1.8065690363e-06 1.8039403405e-06 1.7958128488e-06 1.7850885353e-06 1.7735274505e-06 1.7623312337e-06 1.7525431031e-06 
1.745391721e-06 1.7426776461e-06 1.7473621287e-06 1.7644054107e-06 1.8025651021e-06 1.8483243142e-06 2.1682848562e-06 2.3373139905e-06 2.4219901601e-06 
2.4591207132e-06 2.4699043885e-06 2.4663104892e-06 2.4551987481e-06 2.4405366852e-06 2.4247306055e-06 2.4094233659e-06 2.3960412331e-06 2.3862640091e-06 
2.3825533813e-06 2.3889579104e-06 2.4122591384e-06 2.4644302912e-06 2.3469017606e-06 2.7531702674e-06 2.9677942758e-06 3.0753114738e-06 3.1224578323e-06 
3.1361503571e-06 3.1315870191e-06 3.1174779341e-06 3.0988608434e-06 3.0787911424e-06 3.0593548416e-06 3.0423629366e-06 3.0299483491e-06 3.0252367955e-06 
3.0333689185e-06 3.0629555514e-06 3.1291996458e-06 2.8318871003e-06 3.3221106636e-06 3.5810865487e-06 3.7108220883e-06 3.7677112033e-06 3.7842332772e-06 
3.7787269291e-06 3.7617022133e-06 3.7392379159e-06 3.7150208276e-06 3.6915680309e-06 3.6710647627e-06 3.6560847107e-06 3.6503995184e-06 3.660212138e-06 
3.6959128246e-06 3.7758462072e-06 3.2869716628e-06 3.8559742057e-06 4.1565675434e-06 4.3071515982e-06 4.3731828001e-06 4.3923599731e-06 4.3859687543e-06 
4.3662081647e-06 4.3401338524e-06 4.3120250753e-06 4.2848034117e-06 4.2610052661e-06 4.2436179181e-06 4.2370191148e-06 4.2484086234e-06 4.2898464141e-06 
4.3826250999e-06 3.6965746562e-06 4.336482935e-06 4.6745344389e-06 4.8438833892e-06 4.9181430095e-06 4.9397099284e-06 4.9325222737e-06 4.9102992362e-06 
4.880975697e-06 4.8493641702e-06 4.8187503037e-06 4.7919865737e-06 4.7724325171e-06 4.76501141e-06 4.7778202118e-06 4.8244217353e-06 4.9287619529e-06 
4.0471224516e-06 4.747713513e-06 5.1178225893e-06 5.3032309748e-06 5.3845326675e-06 5.4081447868e-06 5.4002755236e-06 5.3759450657e-06 5.3438407625e-06 
5.3092315007e-06 5.2757145078e-06 5.2464127616e-06 5.2250043852e-06 5.2168795312e-06 5.2309029973e-06 5.2819237638e-06 5.3961586099e-06 4.3281529842e-06 
5.0773928032e-06 5.4732021028e-06 5.6714851709e-06 5.75843242e-06 5.7836841553e-06 5.7752684536e-06 5.7492484987e-06 5.7149148857e-06 5.677902371e-06 
5.6420579717e-06 5.6107215242e-06 5.5878265589e-06 5.5791375184e-06 5.5941347683e-06 5.6486983959e-06 5.7708656632e-06 4.5330812993e-06 5.3177959396e-06 
5.7323459199e-06 5.9400172456e-06 6.0310812515e-06 6.0575285996e-06 6.0487144335e-06 6.0214624921e-06 5.9855032598e-06 5.9467382856e-06 5.9091967347e-06 
5.8763765767e-06 5.8523975863e-06 5.8432971393e-06 5.8590044752e-06 5.916151568e-06 6.0441031808e-06 4.659524235e-06 5.4661272149e-06 5.8922403931e-06 
6.1057043729e-06 6.1993084613e-06 6.2264935153e-06 6.2174334922e-06 6.1894214023e-06 6.1524591456e-06 6.1126128855e-06 6.074024174e-06 6.0402885511e-06 
6.0156407057e-06 6.0062864165e-06 6.022431883e-06 6.081173001e-06 6.2126936162e-06 4.7091653958e-06 5.5243616797e-06 5.9550145387e-06 6.1707526992e-06 
6.2653540171e-06 6.2928286924e-06 6.2836721467e-06 6.2553616244e-06 6.218005583e-06 6.1777348129e-06 6.1387349889e-06 6.1046399569e-06 6.0797295208e-06 
6.0702755739e-06 6.0865930493e-06 6.1459599775e-06 6.2788817734e-06 4.6872228203e-06 5.4986206591e-06 5.9272668711e-06 6.1419997895e-06 6.2361603082e-06 
6.263506964e-06 6.2543930836e-06 6.2262144755e-06 6.1890324963e-06 6.1489493698e-06 6.1101312673e-06 6.0761951027e-06 6.0514007379e-06 6.041990842e-06 
6.0582322855e-06 6.1173225906e-06 6.2496250313e-06 4.6016761736e-06 5.3982651657e-06 5.8190881427e-06 6.0299019641e-06 6.1223439563e-06 6.1491915074e-06 
6.1402439647e-06 6.1125796453e-06 6.0760762755e-06 6.0367247073e-06 5.9986150752e-06 5.9652982806e-06 5.9409564385e-06 5.931718283e-06 5.9476633033e-06 
6.0056751495e-06 6.1355629343e-06 4.4621460946e-06 5.2345812522e-06 5.6426442127e-06 5.8470658266e-06 5.9367048318e-06 5.9627383228e-06 5.9540620837e-06 
5.9272365901e-06 5.8918400601e-06 5.8536816935e-06 5.8167276055e-06 5.7844210287e-06 5.7608172697e-06 5.7518592295e-06 5.7673207717e-06 5.8235736072e-06 
5.9495229895e-06 
s_xx 1 289 double
-10606215.52 3205707.6342 -3645484.3454 -4098631.6252 -4635305.9213 -4448884.0259 -4058074.7378 -3524867.5972 -2939968.9894 
-2338714.9876 -1745842.9791 -1170847.9243 -635261.13488 -96351.659407 218688.60646 1300552.7006 -1853790.4844 -12902245.036 
2345434.9933 -4147075.8855 -4295167.4396 -4671581.8782 -4383316.1801 -3930239.0756 -3356625.4808 -2745112.9732 -2126433.0641 
-1523673.2941 -946664.26079 -420061.33583 94586.053849 352653.9526 1356884.6409 -2081728.8083 -19370236.318 -655349.24105 
-5453245.5638 -4592222.4467 -4414488.4755 -3816484.2192 -3196293.3685 -2536722.5121 -1887387.3611 -1261496.0884 -674886.36099 
-137695.39859 317191.81995 711141.51585 762217.61323 1431912.4857 -2659435.5906 -30453876.89 -6028361.1117 -7648806.5265 
-4998676.7497 -3830291.4087 -2692383.1333 -1789140.7864 -993414.13834 -294117.61817 327388.73701 868731.0799 1319502.1767 
1632942.9477 1799134.1301 1476916.429 1527034.3672 -3623654.3343 -46277028.047 -13842857.629 -10756589.843 -5514978.1907 
-2906729.2471 -992353.51743 312908.83011 1296066.6663 2057428.8263 2662236.7511 3127986.3415 3444044.1343 3543986.521 
3371977.7989 2505250.7284 1641978.3414 -4984132.6713 -66537476.111 -23951351.079 -14716911.949 -6130481.3032 -1660343.2261 
1252303.1056 3070850.2294 4289049.6214 5123282.7078 5699269.6025 6060410.3358 6195895.2735 6014223.1782 5399872.5651 
3827678.247 1774293.2941 -6714689.3219 -90470639.352 -35970816.772 -19380607.105 -6822649.022 -139135.97938 3955850.2408 
6379599.0839 7871655.4881 8786914.7918 9323158.402 9554740.296 9470729.656 8950079.3488 7806078.6952 5394207.0724 
1919211.1295 -8750190.4718 -116876495.65 -49296013.135 -24514312.21 -7557921.772 1579013.5351 6981023.7277 10071583.141 
11862705.15 12863249.195 13351007.07 13434772.844 13103552.726 12203764.32 10469596.253 7126146.847 2069839.2679 
-10988862.624 -144219616.45 -63149974.388 -29819912.633 -8294497.3661 3392866.7213 10150500.353 13930736.749 16028846.497 
17114112.552 17547616.913 17474067.64 16882467.469 15585599.087 13235257.074 8922670.6169 2217729.4631 -13300772.021 
-170791549.22 -76666252.701 -34966056.526 -8986719.6525 5188577.1732 13265699.033 17715398.29 20109276.519 21273461.321 
21650394.084 21419923.055 20571106.303 18884092.713 15930144.777 10671482.037 2353760.7555 -15541557.972 -194908387.28 
-88989148.223 -39626467.322 -9590344.183 6852875.9426 16129766.278 21186277.124 23845920.277 25078164.745 25399731.297 
25022611.504 23935975.008 21890406.894 18383595.594 12261803.382 2469189.6381 -17569123.546 -215106412.01 -99373095.066 
-43517857.664 -10067693.021 8286211.4598 18570425.981 24134234.343 27013395.642 28298559.061 28569155.016 28064381.233 
26773570.99 24422612.21 20447022.291 13597244.291 2556670.5801 -19260148.494 -230298970.04 -107262492.85 -46430305.412 
-10391726.765 9413371.8449 20458393.126 26402648.424 29443123.518 30763021.519 30989563.062 30382764.95 28932170.734 
26345169.542 22009828.957 14606128.377 2611054.324 -20523314.843 -239868193.92 -112338559.2 -48244980.552 -10548346.322 
10189806.021 21718257.302 27900606.748 31037530.775 32372433.03 32563477.697 31884276.217 30324622.797 27580360.511 
23008740.055 15247540.741 2629828.8647 -21307019.625 -243681902.45 -114528259.17 -48937356.694 -10536685.298 10602972.882 
22330684.25 28605528.163 31772844.871 33103001.579 33267808.911 32547047.574 30930796.12 28110460.914 23429559.771 
15512458.794 2613157.7541 -21600762.942 -242046763.1 -113980895.76 -48568063.258 -10367705.257 10669434.506 22327199.688 
28556760.795 31692150.265 32999152.803 33146814.6 32414035.664 30791205.815 27972020.815 23302478.412 15420692.834 
2563580.1394 -21431151.879 -235592069.7 -111009457.14 -47260290.723 -10060961.074 10427291.71 21776872.012 27839329.91 
30887820.149 32155586.582 32294370.815 31575942.343 29991022.624 27241543.026 22690348.761 15013262.91 2485348.3038 
-20852047.629 
s_xy 1 289 double
0.0060826688495 0.0041547382795 0.0019939171278 0.00055408620095 -0.00030918677621 -0.00079748054864 -0.0010652657938 -0.0012022158226 -0.0012579147797 
-0.0012553465071 -0.0012016130785 -0.0010949026576 -0.00092530656108 -0.00068583402864 -0.00038900678615 -9.9158064243e-05 2.3618927327e-05 21041104.646 
10681619.264 4078939.5773 557608.38044 -1408682.7556 -2452682.5441 -2983105.9004 -3218339.9558 -3282203.0524 -3238952.0008 
-3116316.6878 -2914317.3535 -2607091.702 -2131055.5269 -1383616.7043 -110804.33626 1776753.1125 43218600.349 21940132.984 
8378175.1212 1145332.1566 -2893445.8552 -5037829.9258 -6127323.8208 -6610496.4869 -6741671.8078 -6652833.7954 -6400939.8637 
-5986031.5854 -5354987.5943 -4377205.4128 -2841959.9822 -227593.0096 3649465.3667 65519365.787 33261225.185 12701307.213 
1736322.6919 -4386461.7514 -7637346.3975 -9289018.3269 -10021507.727 -10220369.415 -10085691.055 -9703820.043 -9074819.4036 
-8118157.1854 -6635840.13 -4308409.2061 -345030.83211 5532586.7649 86628375.214 43977316.642 16793410.525 2295730.6112 
-5799690.67 -10097944.347 -12281751.438 -13250234.052 -13513164.939 -13335095.945 -12830193.846 -11998541.971 -10733662.609 
-8773773.0936 -5696491.1794 -456192.76117 7315073.8934 105085602.14 53347217.796 20371450.494 2784863.8858 -7035385.1701 
-12249433.97 -14898527.671 -16073357.262 -16392308.766 -16176300.011 -15563822.391 -14554976.989 -13020599.724 -10643131.956 
-6910197.7752 -553390.16667 8873639.1844 119484560.28 60656919.034 23162771.635 3166449.3524 -7999382.2783 -13927866.442 
-16939942.213 -18275748.395 -18638403.026 -18392796.487 -17696396.432 -16549317.794 -14804698.275 -12101466.956 -7857041.553 
-629216.36632 10089516.113 128648906.12 65309243.837 24939332.969 3409312.8393 -8612926.8694 -14996119.817 -18239218.776 
-19677479.952 -20067949.829 -19803505.515 -19053692.274 -17818633.857 -15940203.771 -13029637.324 -8459668.7533 -677476.63002 
10863371.871 131795348.93 66906550.855 25549289.068 3492696.4311 -8823578.3441 -15362888.838 -18685306.197 -20158743.782 
-20558763.613 -20287851.627 -19519699.758 -18254434.783 -16330062.815 -13348310.913 -8666571.9032 -694046.07888 11129063.818 
128648906.12 65309243.837 24939332.969 3409312.8393 -8612926.8694 -14996119.817 -18239218.776 -19677479.952 -20067949.829 
-19803505.515 -19053692.274 -17818633.857 -15940203.771 -13029637.324 -8459668.7533 -677476.63002 10863371.871 119484560.28 
60656919.034 23162771.635 3166449.3524 -7999382.2783 -13927866.442 -16939942.213 -18275748.395 -18638403.026 -18392796.487 
-17696396.432 -16549317.794 -14804698.275 -12101466.956 -7857041.553 -629216.36632 10089516.113 105085602.14 53347217.796 
20371450.494 2784863.8858 -7035385.1701 -12249433.97 -14898527.671 -16073357.262 -16392308.766 -16176300.011 -15563822.391 
-14554976.989 -13020599.724 -10643131.956 -6910197.7752 -553390.16667 8873639.1844 86628375.214 43977316.642 16793410.525 
2295730.6112 -5799690.67 -10097944.347 -12281751.438 -13250234.052 -13513164.939 -13335095.945 -12830193.846 -11998541.971 
-10733662.609 -8773773.0936 -5696491.1794 -456192.76117 7315073.8934 65519365.787 33261225.185 12701307.213 1736322.6919 
-4386461.7514 -7637346.3975 -9289018.3269 -10021507.727 -10220369.415 -10085691.055 -9703820.043 -9074819.4036 -8118157.1854 
-6635840.13 -4308409.2061 -345030.83211 5532586.7649 43218600.349 21940132.984 8378175.1212 1145332.1566 -2893445.8552 
-5037829.9258 -6127323.8208 -6610496.4869 -6741671.8078 -6652833.7954 -6400939.8637 -5986031.5854 -5354987.5944 -4377205.4128 
-2841959.9822 -227593.0096 3649465.3667 21041104.646 10681619.264 4078939.5773 557608.38044 -1408682.7556 -2452682.5441 
-2983105.9004 -3218339.9558 -3282203.0524 -3238952.0008 -3116316.6878 -2914317.3535 -2607091.702 -2131055.5269 -1383616.7043 
-110804.33627 1776753.1125 0.0060774699921 0.0041523394037 0.001991991997 0.00055319063197 -0.00030996136763 -0.00079837592399 -0.0010652572026 
-0.0012016055153 -0.0012568814452 -0.0012540836853 -0.0012018833274 -0.0010953779878 -0.00092555369803 -0.00068574404054 -0.00038846557614 -9.90925856e-05 
2.4085968263e-05 
s_yy 1 289 double
-235592069.7 -111009457.14 -47260290.723 -10060961.074 10427291.71 21776872.012 27839329.91 30887820.149 32155586.582 
32294370.815 31575942.343 29991022.624 27241543.026 22690348.761 15013262.91 2485348.3038 -20852047.629 -242046763.1 
-113980895.76 -48568063.258 -10367705.257 10669434.506 22327199.688 28556760.795 31692150.265 32999152.803 33146814.6 
32414035.664 30791205.815 27972020.815 23302478.412 15420692.834 2563580.1394 -21431151.879 -243681902.45 -114528259.17 
-48937356.694 -10536685.298 10602972.882 22330684.25 28605528.163 31772844.871 33103001.579 33267808.911 32547047.574 
30930796.12 28110460.914 23429559.771 15512458.794 2613157.7541 -21600762.942 -239868193.92 -112338559.2 -48244980.552 
-10548346.322 10189806.021 21718257.302 27900606.748 31037530.775 32372433.03 32563477.697 31884276.217 30324622.797 
27580360.511 23008740.055 15247540.741 2629828.8647 -21307019.625 -230298970.04 -107262492.85 -46430305.411 -10391726.765 
9413371.8449 20458393.126 26402648.424 29443123.518 30763021.519 30989563.062 30382764.95 28932170.734 26345169.542 
22009828.957 14606128.377 2611054.324 -20523314.843 -215106412.01 -99373095.066 -43517857.664 -10067693.021 8286211.4598 
18570425.981 24134234.343 27013395.642 28298559.061 28569155.016 28064381.233 26773570.99 24422612.21 20447022.291 
13597244.291 2556670.5801 -19260148.494 -194908387.28 -88989148.223 -39626467.322 -9590344.183 6852875.9426 16129766.278 
21186277.124 23845920.277 25078164.745 25399731.297 25022611.504 23935975.008 21890406.894 18383595.594 12261803.382 
2469189.6381 -17569123.546 -170791549.22 -76666252.701 -34966056.526 -8986719.6525 5188577.1732 13265699.033 17715398.29 
20109276.519 21273461.321 21650394.084 21419923.055 20571106.303 18884092.713 15930144.777 10671482.037 2353760.7555 
-15541557.972 -144219616.45 -63149974.388 -29819912.633 -8294497.3661 3392866.7213 10150500.353 13930736.749 16028846.497 
17114112.552 17547616.913 17474067.64 16882467.469 15585599.087 13235257.074 8922670.6169 2217729.4631 -13300772.021 
-116876495.65 -49296013.135 -24514312.21 -7557921.772 1579013.5351 6981023.7277 10071583.141 11862705.15 12863249.195 
13351007.07 13434772.844 13103552.726 12203764.32 10469596.253 7126146.847 2069839.2679 -10988862.624 -90470639.352 
-35970816.772 -19380607.105 -6822649.022 -139135.97938 3955850.2408 6379599.0839 7871655.4881 8786914.7918 9323158.402 
9554740.296 9470729.656 8950079.3488 7806078.6952 5394207.0723 1919211.1295 -8750190.4718 -66537476.111 -23951351.079 
-14716911.949 -6130481.3032 -1660343.2261 1252303.1056 3070850.2294 4289049.6214 5123282.7078 5699269.6025 6060410.3358 
6195895.2735 6014223.1782 5399872.5651 3827678.247 1774293.2941 -6714689.3219 -46277028.047 -13842857.629 -10756589.843 
-5514978.1907 -2906729.2471 -992353.51743 312908.83011 1296066.6663 2057428.8263 2662236.7511 3127986.3415 3444044.1343 
3543986.521 3371977.7989 2505250.7284 1641978.3414 -4984132.6713 -30453876.89 -6028361.1117 -7648806.5265 -4998676.7497 
-3830291.4087 -2692383.1333 -1789140.7864 -993414.13834 -294117.61817 327388.73701 868731.07991 1319502.1767 1632942.9477 
1799134.1301 1476916.429 1527034.3672 -3623654.3343 -19370236.318 -655349.24105 -5453245.5638 -4592222.4467 -4414488.4755 
-3816484.2192 -3196293.3685 -2536722.5121 -1887387.3611 -1261496.0884 -674886.36099 -137695.39859 317191.81995 711141.51585 
762217.61323 1431912.4857 -2659435.5906 -12902245.036 2345434.9933 -4147075.8855 -4295167.4396 -4671581.8782 -4383316.1801 
-3930239.0756 -3356625.4808 -2745112.9732 -2126433.0641 -1523673.2941 -946664.26079 -420061.33583 94586.053848 352653.9526 
1356884.6409 -2081728.8083 -10606215.52 3205707.6342 -3645484.3454 -4098631.6252 -4635305.9213 -4448884.0259 -4058074.7378 
-3524867.5972 -2939968.9894 -2338714.9876 -1745842.9791 -1170847.9243 -635261.13488 -96351.659409 218688.60646 1300552.7006 
-1853790.4844 
s_zz 1 289 double
-313859485.57 -168796201.62 -92970196.049 -48492637.101 -23499506.682 -9251102.4475 -1232556.5731 3205737.2701 5505186.1944 
6423889.5134 6271717.4104 5021371.5874 2295065.1864 -2709723.8173 -11620491.581 -26689942.315 -54811751.434 -325015117.27 
-174795791.71 -96274672.459 -50216230.061 -24334758.933 -9579918.0374 -1276365.8189 3319680.0559 5700859.2018 6652216.3559 
6494635.5397 5199848.1811 2376639.5947 -2806036.6018 -12033523.305 -27638593.48 -56759947.171 -335345182.75 -180351385.52 
-99334602.962 -51812269.499 -25108198.814 -9884399.8152 -1316932.9858 3425190.5708 5882051.5396 6863646.0001 6701056.7396 
5365116.7161 2452177.1356 -2895221.8127 -12415988.849 -28517040.252 -58563967.784 -344613066.69 -185335729.4 -102079898.31 
-53244197.33 -25802110.295 -10157573.473 -1353328.8629 3519852.0429 6044612.9055 7053335.5432 6886252.8279 5513391.6327 
2519947.5829 -2975236.6188 -12759127.649 -29305161.366 -60182491.276 -352585723.35 -189623489.44 -104441526.64 -54476006.99 
-26399044.614 -10392569.919 -1384638.2572 3601284.1607 6184455.6103 7216515.1438 7045566.9538 5640944.482 2578246.8143 
-3044069.0059 -13054311.302 -29983139.112 -61574819.038 -359046391.25 -193098089.55 -106355279.74 -55474207.9 -26882772.256 
-10583000.043 -1410009.9252 3667272.9386 6297777.5948 7348748.2568 7174667.6668 5744307.3425 2625489.7834 -3099847.5518 
-13293514.323 -30532540.553 -62703096.308 -363808035.51 -195658940.83 -107765754.87 -56209902.367 -27239289.411 -10723350.935 
-1428709.3631 3715908.0163 6381298.2129 7446206.763 7269817.5303 5820487.8828 2660308.817 -3140957.4798 -13469811.837 
-30937460.641 -63534659.709 -366726130.92 -197228316.43 -108630141.37 -56660760.628 -27457775.089 -10809362.672 -1440169.0061 
3745713.2241 6432482.4507 7505932.6064 7328128.5599 5867173.8746 2681647.0893 -3166151.0233 -13577852.87 -31185609.261 
-64044269.67 -367709259.93 -197757051.27 -108921359.9 -56812658.278 -27531384.612 -10838340.694 -1444029.8489 3755754.8302 
6449726.818 7526054.707 7347773.9988 5882902.7479 2688836.119 -3174638.9239 -13614252.734 -31269212.458 -64215961.225 
-366726130.92 -197228316.43 -108630141.37 -56660760.628 -27457775.089 -10809362.672 -1440169.0061 3745713.2241 6432482.4507 
7505932.6064 7328128.5599 5867173.8746 2681647.0893 -3166151.0233 -13577852.87 -31185609.261 -64044269.67 -363808035.51 
-195658940.83 -107765754.87 -56209902.367 -27239289.411 -10723350.935 -1428709.3631 3715908.0163 6381298.2129 7446206.763 
7269817.5303 5820487.8828 2660308.817 -3140957.4798 -13469811.837 -30937460.641 -63534659.709 -359046391.25 -193098089.55 
-106355279.74 -55474207.9 -26882772.256 -10583000.043 -1410009.9252 3667272.9386 6297777.5948 7348748.2568 7174667.6668 
5744307.3425 2625489.7834 -3099847.5518 -13293514.323 -30532540.553 -62703096.308 -352585723.35 -189623489.44 -104441526.64 
-54476006.99 -26399044.614 -10392569.919 -1384638.2572 3601284.1607 6184455.6103 7216515.1438 7045566.9538 5640944.482 
2578246.8143 -3044069.0059 -13054311.302 -29983139.112 -61574819.038 -344613066.69 -185335729.4 -102079898.31 -53244197.33 
-25802110.295 -10157573.473 -1353328.8629 3519852.0429 6044612.9055 7053335.5432 6886252.8279 5513391.6327 2519947.5829 
-2975236.6188 -12759127.649 -29305161.366 -60182491.276 -335345182.75 -180351385.52 -99334602.962 -51812269.499 -25108198.814 
-9884399.8152 -1316932.9858 3425190.5708 5882051.5396 6863646.0001 6701056.7396 5365116.7161 2452177.1356 -2895221.8127 
-12415988.849 -28517040.252 -58563967.784 -325015117.27 -174795791.71 -96274672.459 -50216230.061 -24334758.933 -9579918.0374 
-1276365.8189 3319680.0559 5700859.2018 6652216.3559 6494635.5397 5199848.1811 2376639.5947 -2806036.6018 -12033523.305 
-27638593.48 -56759947.171 -313859485.57 -168796201.62 -92970196.049 -48492637.101 -23499506.682 -9251102.4475 -1232556.5731 
3205737.2701 5505186.1944 6423889.5134 6271717.4104 5021371.5874 2295065.1864 -2709723.8173 -11620491.581 -26689942.315 
-54811751.434 
theta 1 289 double
373 329.85628199 305.3743598 291.43531637 283.51545934 279.02062452 276.48622214 275.08464521 274.35812462 
274.06783635 274.11554683 274.51028368 275.36950808 276.95330123 279.74586543 284.59404692 293 386.25768637 
341.58049414 316.22840133 301.79391697 293.59256133 288.93796482 286.31348117 284.86208744 284.10974384 283.80913774 
283.85854402 284.26731115 285.1570753 286.79716184 289.68898326 294.70948558 303.41421477 398.53424516 352.43706261 
326.27919564 311.38593518 302.92391308 298.12137795 295.41347945 293.91595558 293.13969999 292.82953963 292.8805162 
293.30227532 294.22031914 295.91253311 298.89626626 304.07633691 313.05773145 409.54847563 362.17731223 335.29652427 
319.99166103 311.29577531 306.36051324 303.57777696 302.03886625 301.24115741 300.92242519 300.97481059 301.4082258 
302.35164146 304.09062289 307.15681702 312.4800485 321.70966048 419.02341926 370.55631942 343.05364182 327.39469909 
318.49763321 313.44819338 310.60107822 309.02656467 308.21040075 307.88429463 307.93789197 308.38133428 309.34657596 
311.12578889 314.26291972 319.70930467 329.15244462 426.70147023 377.34627477 349.33964692 333.39377473 324.33368186 
319.19171771 316.29243293 314.68906849 313.85794945 313.52586786 313.58044731 314.03201512 315.01494357 316.82675823 
320.02137285 325.56755561 335.18372863 432.36035069 382.35061061 353.97256111 337.81521606 328.63496897 323.42481251 
320.48707765 318.86244952 318.02030824 317.68382262 317.73912589 318.19668235 319.19264633 321.02848912 324.26547046 
329.88520625 339.62890818 435.82830255 385.41743556 356.81176642 340.52482369 331.27094207 326.01899507 323.05769671 
321.42003747 320.5711414 320.23195683 320.28770369 320.74893021 321.75288278 323.60345083 326.86639591 332.53120747 
342.3530634 436.99668247 386.45067271 357.76831674 341.43771155 332.15902188 326.89299532 323.92375824 322.28170872 
321.43053691 321.09044304 321.14633935 321.60880233 322.61544633 324.47097543 327.7426679 333.42266583 343.27085245 
435.82830255 385.41743556 356.81176642 340.52482369 331.27094207 326.01899507 323.05769671 321.42003747 320.5711414 
320.23195683 320.28770369 320.74893021 321.75288278 323.60345083 326.86639591 332.53120747 342.3530634 432.36035069 
382.35061061 353.97256111 337.81521606 328.63496897 323.42481251 320.48707765 318.86244952 318.02030824 317.68382262 
317.73912589 318.19668235 319.19264633 321.02848912 324.26547046 329.88520625 339.62890818 426.70147023 377.34627477 
349.33964692 333.39377473 324.33368186 319.19171771 316.29243293 314.68906849 313.85794945 313.52586786 313.58044731 
314.03201512 315.01494357 316.82675823 320.02137285 325.56755561 335.18372863 419.02341926 370.55631942 343.05364182 
327.39469909 318.49763321 313.44819338 310.60107822 309.02656467 308.21040075 307.88429463 307.93789197 308.38133428 
309.34657596 311.12578889 314.26291972 319.70930467 329.15244462 409.54847563 362.17731223 335.29652427 319.99166103 
311.29577531 306.36051324 303.57777696 302.03886625 301.24115741 300.92242519 300.97481059 301.4082258 302.35164146 
304.09062289 307.15681702 312.4800485 321.70966048 398.53424516 352.43706261 326.27919564 311.38593518 302.92391308 
298.12137795 295.41347945 293.91595558 293.13969999 292.82953963 292.8805162 293.30227532 294.22031914 295.91253311 
298.89626626 304.07633691 313.05773145 386.25768637 341.58049414 316.22840133 301.79391697 293.59256133 288.93796482 
286.31348117 284.86208744 284.10974384 283.80913774 283.85854402 284.26731115 285.1570753 286.79716184 289.68898326 
294.70948558 303.41421477 373 329.85628199 305.3743598 291.43531637 283.51545934 279.02062452 276.48622214 
275.08464521 274.35812462 274.06783635 274.11554683 274.51028368 275.36950808 276.95330123 279.74586543 284.59404692 
293 
von%20Mises%20stress 1 289 double
272678353.34 151646734.06 77290009.866 41835686.55 29409671.732 28849926.082 30570056.477 31585822.372 31726534.927 
31188663.788 30123424.212 28571755.905 26523635.782 24176386.555 23024996.893 28764130.493 46469026.701 282370267.79 
157036773.84 80037159.223 43322668.887 30454991.314 29875350.402 31656620.072 32708489.734 32854203.692 32297214.786 
31194112.98 29587293.113 27466375.847 25035697.413 23843383.454 29786505.348 48120693.677 291344937.58 162027926.78 
82581007.345 44699607.935 31422952.611 30824888.776 32662773.143 33748074.735 33898419.969 33323728.096 32185566.031 
30527676.065 28339348.968 25831415.459 24601205.781 30733219.93 49650129.972 299396793.42 166505868 84863286.116 
45934964.218 32291383.985 31676791.551 33565469.249 34680765.156 34835265.458 34244690.914 33075073.636 31371364.816 
29122559.256 26545314.368 25281105.573 31582589.266 51022303.081 306323367.22 170357997.38 86826606.456 46997674.062 
33038448.279 32409637.19 34342009.629 35483108.016 35641182.697 35036945.153 33840268.667 32097144.379 29796312.484 
27159442.786 25865986.398 32313255.527 52202709.002 311936338.52 173479582.78 88417589.393 47858844.394 33643834.228 
33003501.005 34971281.618 36133289.126 36294260.317 35678950.918 34460346.915 32685282.175 30342290.573 27657103.72 
26339946.451 32905353.275 53159254.728 316073213.07 175780255 89590176.326 48493544.525 34090016.041 33441190.771 
35435067.932 36612485.89 36775591.868 36152122.285 34917357.254 33118751.749 30744687.582 28023889.997 26689264.694 
33341741.414 53864248.473 318608428.62 177190184.16 90308776.952 48882510.067 34363451.231 33709421.749 35719291.751 
36906153.749 37070567.996 36442097.579 35197428.528 33384396.452 30991289.973 28248668.937 26903338.638 33609174.711 
54296292.3 319462562.44 177665200.24 90550879.085 49013555.579 34455573.671 33799790.849 35815048.963 37005092.732 
37169947.745 36539792.508 35291786.716 33473894.216 31074372.235 28324398.708 26975461.812 33699275.067 54441851.222 
318608428.62 177190184.16 90308776.952 48882510.067 34363451.231 33709421.749 35719291.751 36906153.749 37070567.996 
36442097.579 35197428.528 33384396.452 30991289.973 28248668.937 26903338.638 33609174.711 54296292.3 316073213.07 
175780255 89590176.326 48493544.525 34090016.041 33441190.771 35435067.932 36612485.89 36775591.868 36152122.285 
34917357.254 33118751.749 30744687.582 28023889.997 26689264.694 33341741.414 53864248.473 311936338.52 173479582.78 
88417589.393 47858844.394 33643834.228 33003501.005 34971281.618 36133289.126 36294260.317 35678950.918 34460346.915 
32685282.175 30342290.573 27657103.72 26339946.451 32905353.275 53159254.728 306323367.22 170357997.38 86826606.456 
46997674.062 33038448.279 32409637.19 34342009.629 35483108.016 35641182.697 35036945.153 33840268.667 32097144.379 
29796312.484 27159442.786 25865986.398 32313255.527 52202709.002 299396793.42 166505868 84863286.116 45934964.218 
32291383.985 31676791.551 33565469.249 34680765.156 34835265.458 34244690.914 33075073.636 31371364.816 29122559.256 
26545314.368 25281105.573 31582589.266 51022303.081 291344937.58 162027926.78 82581007.345 44699607.935 31422952.611 
30824888.776 32662773.143 33748074.735 33898419.969 33323728.096 32185566.031 30527676.065 28339348.968 25831415.459 
24601205.781 30733219.93 49650129.972 282370267.79 157036773.84 80037159.223 43322668.887 30454991.314 29875350.402 
31656620.072 32708489.734 32854203.692 32297214.786 31194112.98 29587293.113 27466375.847 25035697.413 23843383.454 
29786505.348 48120693.677 272678353.34 151646734.06 77290009.866 41835686.55 29409671.732 28849926.082 30570056.477 
31585822.372 31726534.927 31188663.788 30123424.212 28571755.905 26523635.782 24176386.555 23024996.893 28764130.493 
46469026.701 
