# vtk DataFile Version 5.1
vtk output
ASCII
DATASET UNSTRUCTURED_GRID
POINTS 1089 double
0.03 0 0 0.0303125 0 0 0.030625 0 0 
0.0309375 0 0 0.03125 0 0 0.0315625 0 0 
0.031875 0 0 0.0321875 0 0 0.0325 0 0 
0.0328125 0 0 0.033125 0 0 0.0334375 0 0 
0.03375 0 0 0.0340625 0 0 0.034375 0 0 
0.0346875 0 0 0.035 0 0 0.0353125 0 0 
0.035625 0 0 0.0359375 0 0 0.03625 0 0 
0.0365625 0 0 0.036875 0 0 0.0371875 0 0 
0.0375 0 0 0.0378125 0 0 0.038125 0 0 
0.0384375 0 0 0.03875 0 0 0.0390625 0 0 
0.039375 0 0 0.0396875 0 0 0.04 0 0 
0.029970174201 0.0013374073245 0 0.030282363516 0.0013513386508 0 0.03059455283 0.0013652699771 0 
0.030906742145 0.0013792013033 0 0.03121893146 0.0013931326296 0 0.031531120774 0.0014070639559 0 
0.031843310089 0.0014209952822 0 0.032155499403 0.0014349266085 0 0.032467688718 0.0014488579348 0 
0.032779878033 0.0014627892611 0 0.033092067347 0.0014767205874 0 0.033404256662 0.0014906519137 0 
0.033716445976 0.00150458324 0 0.034028635291 0.0015185145663 0 0.034340824606 0.0015324458926 0 
0.03465301392 0.0015463772189 0 0.034965203235 0.0015603085452 0 0.035277392549 0.0015742398715 0 
0.035589581864 0.0015881711978 0 0.035901771178 0.0016021025241 0 0.036213960493 0.0016160338504 0 
0.036526149808 0.0016299651767 0 0.036838339122 0.001643896503 0 0.037150528437 0.0016578278293 0 
0.037462717751 0.0016717591556 0 0.037774907066 0.0016856904819 0 0.038087096381 0.0016996218082 0 
0.038399285695 0.0017135531345 0 0.03871147501 0.0017274844608 0 0.039023664324 0.0017414157871 0 
0.039335853639 0.0017553471134 0 0.039648042954 0.0017692784396 0 0.039960232268 0.0017832097659 0 
0.029878647258 0.0026956331369 0 0.030189883167 0.0027237126488 0 0.030501119076 0.0027517921606 0 
0.030812354985 0.0027798716725 0 0.031123590894 0.0028079511843 0 0.031434826803 0.0028360306961 0 
0.031746062712 0.002864110208 0 0.032057298621 0.0028921897198 0 0.03236853453 0.0029202692317 0 
0.032679770439 0.0029483487435 0 0.032991006348 0.0029764282554 0 0.033302242257 0.0030045077672 0 
0.033613478166 0.003032587279 0 0.033924714075 0.0030606667909 0 0.034235949984 0.0030887463027 0 
0.034547185893 0.0031168258146 0 0.034858421801 0.0031449053264 0 0.03516965771 0.0031729848383 0 
0.035480893619 0.0032010643501 0 0.035792129528 0.0032291438619 0 0.036103365437 0.0032572233738 0 
0.036414601346 0.0032853028856 0 0.036725837255 0.0033133823975 0 0.037037073164 0.0033414619093 0 
0.037348309073 0.0033695414212 0 0.037659544982 0.003397620933 0 0.037970780891 0.0034257004448 0 
0.0382820168 0.0034537799567 0 0.038593252709 0.0034818594685 0 0.038904488618 0.0035099389804 0 
0.039215724527 0.0035380184922 0 0.039526960436 0.0035660980041 0 0.039838196345 0.0035941775159 0 
0.02972251814 0.0040708617533 0 0.030032127704 0.0041132665632 0 0.030341737268 0.0041556713732 0 
0.030651346832 0.0041980761831 0 0.030960956396 0.004240480993 0 0.03127056596 0.004282885803 0 
0.031580175524 0.0043252906129 0 0.031889785088 0.0043676954228 0 0.032199394652 0.0044101002328 0 
0.032509004216 0.0044525050427 0 0.03281861378 0.0044949098526 0 0.033128223344 0.0045373146625 0 
0.033437832908 0.0045797194725 0 0.033747442472 0.0046221242824 0 0.034057052035 0.0046645290923 0 
0.034366661599 0.0047069339023 0 0.034676271163 0.0047493387122 0 0.034985880727 0.0047917435221 0 
0.035295490291 0.0048341483321 0 0.035605099855 0.004876553142 0 0.035914709419 0.0049189579519 0 
0.036224318983 0.0049613627618 0 0.036533928547 0.0050037675718 0 0.036843538111 0.0050461723817 0 
0.037153147675 0.0050885771916 0 0.037462757239 0.0051309820016 0 0.037772366803 0.0051733868115 0 
0.038081976367 0.0052157916214 0 0.038391585931 0.0052581964314 0 0.038701195495 0.0053006012413 0 
0.039010805059 0.0053430060512 0 0.039320414623 0.0053854108611 0 0.039630024187 0.0054278156711 0 
0.029499161052 0.0054588915724 0 0.02980644398 0.0055157550262 0 0.030113726908 0.0055726184801 0 
0.030421009835 0.005629481934 0 0.030728292763 0.0056863453879 0 0.031035575691 0.0057432088418 0 
0.031342858618 0.0058000722956 0 0.031650141546 0.0058569357495 0 0.031957424474 0.0059137992034 0 
0.032264707401 0.0059706626573 0 0.032571990329 0.0060275261112 0 0.032879273256 0.006084389565 0 
0.033186556184 0.0061412530189 0 0.033493839112 0.0061981164728 0 0.033801122039 0.0062549799267 0 
0.034108404967 0.0063118433805 0 0.034415687895 0.0063687068344 0 0.034722970822 0.0064255702883 0 
0.03503025375 0.0064824337422 0 0.035337536677 0.0065392971961 0 0.035644819605 0.0065961606499 0 
0.035952102533 0.0066530241038 0 0.03625938546 0.0067098875577 0 0.036566668388 0.0067667510116 0 
0.036873951316 0.0068236144655 0 0.037181234243 0.0068804779193 0 0.037488517171 0.0069373413732 0 
0.037795800099 0.0069942048271 0 0.038103083026 0.007051068281 0 0.038410365954 0.0071079317348 0 
0.038717648881 0.0071647951887 0 0.039024931809 0.0072216586426 0 0.039332214737 0.0072785220965 0 
0.029206281031 0.0068551548722 0 0.029510513125 0.0069265627354 0 0.029814745219 0.0069979705987 0 
0.030118977314 0.0070693784619 0 0.030423209408 0.0071407863252 0 0.030727441502 0.0072121941885 0 
0.031031673596 0.0072836020517 0 0.03133590569 0.007355009915 0 0.031640137784 0.0074264177782 0 
0.031944369878 0.0074978256415 0 0.032248601972 0.0075692335047 0 0.032552834066 0.007640641368 0 
0.03285706616 0.0077120492312 0 0.033161298254 0.0077834570945 0 0.033465530348 0.0078548649577 0 
0.033769762442 0.007926272821 0 0.034073994536 0.0079976806842 0 0.034378226631 0.0080690885475 0 
0.034682458725 0.0081404964107 0 0.034986690819 0.008211904274 0 0.035290922913 0.0082833121372 0 
0.035595155007 0.0083547200005 0 0.035899387101 0.0084261278637 0 0.036203619195 0.008497535727 0 
0.036507851289 0.0085689435902 0 0.036812083383 0.0086403514535 0 0.037116315477 0.0087117593167 0 
0.037420547571 0.00878316718 0 0.037724779665 0.0088545750432 0 0.038029011759 0.0089259829065 0 
0.038333243854 0.0089973907698 0 0.038637475948 0.009068798633 0 0.038941708042 0.0091402064963 0 
0.028841968746 0.0082547464454 0 0.02914240592 0.0083407333875 0 0.029442843094 0.0084267203296 0 
0.029743280269 0.0085127072718 0 0.030043717443 0.0085986942139 0 0.030344154618 0.0086846811561 0 
0.030644591792 0.0087706680982 0 0.030945028967 0.0088566550403 0 0.031245466141 0.0089426419825 0 
0.031545903316 0.0090286289246 0 0.03184634049 0.0091146158668 0 0.032146777664 0.0092006028089 0 
0.032447214839 0.009286589751 0 0.032747652013 0.0093725766932 0 0.033048089188 0.0094585636353 0 
0.033348526362 0.0095445505774 0 0.033648963537 0.0096305375196 0 0.033949400711 0.0097165244617 0 
0.034249837885 0.0098025114039 0 0.03455027506 0.009888498346 0 0.034850712234 0.0099744852881 0 
0.035151149409 0.01006047223 0 0.035451586583 0.010146459172 0 0.035752023758 0.010232446115 0 
0.036052460932 0.010318433057 0 0.036352898106 0.010404419999 0 0.036653335281 0.010490406941 0 
0.036953772455 0.010576393883 0 0.03725420963 0.010662380825 0 0.037554646804 0.010748367767 0 
0.037855083979 0.01083435471 0 0.038155521153 0.010920341652 0 0.038455958327 0.011006328594 0 
0.028404752965 0.0096524612915 0 0.028700635809 0.0097530077632 0 0.028996518652 0.009853554235 0 
0.029292401495 0.0099541007068 0 0.029588284339 0.010054647179 0 0.029884167182 0.01015519365 0 
0.030180050026 0.010255740122 0 0.030475932869 0.010356286594 0 0.030771815712 0.010456833066 0 
0.031067698556 0.010557379538 0 0.031363581399 0.010657926009 0 0.031659464243 0.010758472481 0 
0.031955347086 0.010859018953 0 0.032251229929 0.010959565425 0 0.032547112773 0.011060111896 0 
0.032842995616 0.011160658368 0 0.033138878459 0.01126120484 0 0.033434761303 0.011361751312 0 
0.033730644146 0.011462297784 0 0.03402652699 0.011562844255 0 0.034322409833 0.011663390727 0 
0.034618292676 0.011763937199 0 0.03491417552 0.011864483671 0 0.035210058363 0.011965030143 0 
0.035505941207 0.012065576614 0 0.03580182405 0.012166123086 0 0.036097706893 0.012266669558 0 
0.036393589737 0.01236721603 0 0.03668947258 0.012467762501 0 0.036985355424 0.012568308973 0 
0.037281238267 0.012668855445 0 0.03757712111 0.012769401917 0 0.037873003954 0.012869948389 0 
0.027893649032 0.011042841287 0 0.028184207876 0.011157870884 0 0.02847476672 0.01127290048 0 
0.028765325564 0.011387930077 0 0.029055884408 0.011502959674 0 0.029346443252 0.011617989271 0 
0.029637002096 0.011733018867 0 0.02992756094 0.011848048464 0 0.030218119785 0.011963078061 0 
0.030508678629 0.012078107657 0 0.030799237473 0.012193137254 0 0.031089796317 0.012308166851 0 
0.031380355161 0.012423196448 0 0.031670914005 0.012538226044 0 0.031961472849 0.012653255641 0 
0.032252031693 0.012768285238 0 0.032542590537 0.012883314835 0 0.032833149381 0.012998344431 0 
0.033123708225 0.013113374028 0 0.033414267069 0.013228403625 0 0.033704825914 0.013343433222 0 
0.033995384758 0.013458462818 0 0.034285943602 0.013573492415 0 0.034576502446 0.013688522012 0 
0.03486706129 0.013803551609 0 0.035157620134 0.013918581205 0 0.035448178978 0.014033610802 0 
0.035738737822 0.014148640399 0 0.036029296666 0.014263669996 0 0.03631985551 0.014378699592 0 
0.036610414354 0.014493729189 0 0.036900973198 0.014608758786 0 0.037191532042 0.014723788382 0 
0.027308201633 0.012420230416 0 0.027592662066 0.012549607816 0 0.0278771225 0.012678985216 0 
0.028161582934 0.012808362617 0 0.028446043367 0.012937740017 0 0.028730503801 0.013067117417 0 
0.029014964235 0.013196494817 0 0.029299424668 0.013325872217 0 0.029583885102 0.013455249617 0 
0.029868345536 0.013584627018 0 0.030152805969 0.013714004418 0 0.030437266403 0.013843381818 0 
0.030721726837 0.013972759218 0 0.03100618727 0.014102136618 0 0.031290647704 0.014231514018 0 
0.031575108138 0.014360891419 0 0.031859568571 0.014490268819 0 0.032144029005 0.014619646219 0 
0.032428489439 0.014749023619 0 0.032712949873 0.014878401019 0 0.032997410306 0.015007778419 0 
0.03328187074 0.01513715582 0 0.033566331174 0.01526653322 0 0.033850791607 0.01539591062 0 
0.034135252041 0.01552528802 0 0.034419712475 0.01565466542 0 0.034704172908 0.01578404282 0 
0.034988633342 0.015913420221 0 0.035273093776 0.016042797621 0 0.035557554209 0.016172175021 0 
0.035842014643 0.016301552421 0 0.036126475077 0.016430929821 0 0.03641093551 0.016560307221 0 
0.026648520205 0.013778837792 0 0.026926108957 0.013922367352 0 0.027203697709 0.014065896912 0 
0.027481286461 0.014209426473 0 0.027758875213 0.014352956033 0 0.028036463966 0.014496485593 0 
0.028314052718 0.014640015154 0 0.02859164147 0.014783544714 0 0.028869230222 0.014927074274 0 
0.029146818974 0.015070603835 0 0.029424407726 0.015214133395 0 0.029701996478 0.015357662955 0 
0.029979585231 0.015501192516 0 0.030257173983 0.015644722076 0 0.030534762735 0.015788251636 0 
0.030812351487 0.015931781197 0 0.031089940239 0.016075310757 0 0.031367528991 0.016218840317 0 
0.031645117743 0.016362369878 0 0.031922706495 0.016505899438 0 0.032200295248 0.016649428998 0 
0.032477884 0.016792958559 0 0.032755472752 0.016936488119 0 0.033033061504 0.017080017679 0 
0.033310650256 0.01722354724 0 0.033588239008 0.0173670768 0 0.03386582776 0.01751060636 0 
0.034143416513 0.017654135921 0 0.034421005265 0.017797665481 0 0.034698594017 0.017941195041 0 
0.034976182769 0.018084724602 0 0.035253771521 0.018228254162 0 0.035531360273 0.018371783722 0 
0.025915305412 0.01511280733 0 0.02618525651 0.015270232406 0 0.026455207609 0.015427657482 0 
0.026725158707 0.015585082559 0 0.026995109805 0.015742507635 0 0.027265060903 0.015899932711 0 
0.027535012001 0.016057357788 0 0.027804963099 0.016214782864 0 0.028074914197 0.01637220794 0 
0.028344865295 0.016529633017 0 0.028614816393 0.016687058093 0 0.028884767491 0.016844483169 0 
0.029154718589 0.017001908246 0 0.029424669687 0.017159333322 0 0.029694620785 0.017316758398 0 
0.029964571883 0.017474183475 0 0.030234522981 0.017631608551 0 0.030504474079 0.017789033628 0 
0.030774425177 0.017946458704 0 0.031044376275 0.01810388378 0 0.031314327373 0.018261308857 0 
0.031584278471 0.018418733933 0 0.031854229569 0.018576159009 0 0.032124180667 0.018733584086 0 
0.032394131766 0.018891009162 0 0.032664082864 0.019048434238 0 0.032934033962 0.019205859315 0 
0.03320398506 0.019363284391 0 0.033473936158 0.019520709467 0 0.033743887256 0.019678134544 0 
0.034013838354 0.01983555962 0 0.034283789452 0.019992984696 0 0.03455374055 0.020150409773 0 
0.025109865337 0.016416292602 0 0.025371426434 0.016587295649 0 0.025632987531 0.016758298697 0 
0.025894548628 0.016929301745 0 0.026156109726 0.017100304793 0 0.026417670823 0.017271307841 0 
0.02667923192 0.017442310889 0 0.026940793017 0.017613313937 0 0.027202354115 0.017784316985 0 
0.027463915212 0.017955320033 0 0.027725476309 0.018126323081 0 0.027987037406 0.018297326129 0 
0.028248598504 0.018468329177 0 0.028510159601 0.018639332225 0 0.028771720698 0.018810335273 0 
0.029033281795 0.018981338321 0 0.029294842893 0.019152341368 0 0.02955640399 0.019323344416 0 
0.029817965087 0.019494347464 0 0.030079526184 0.019665350512 0 0.030341087282 0.01983635356 0 
0.030602648379 0.020007356608 0 0.030864209476 0.020178359656 0 0.031125770573 0.020349362704 0 
0.031387331671 0.020520365752 0 0.031648892768 0.0206913688 0 0.031910453865 0.020862371848 0 
0.032172014962 0.021033374896 0 0.03243357606 0.021204377944 0 0.032695137157 0.021375380992 0 
0.032956698254 0.02154638404 0 0.033218259351 0.021717387087 0 0.033479820449 0.021888390135 0 
0.024234120303 0.017683535086 0 0.024486559056 0.017867738576 0 0.02473899781 0.018051942067 0 
0.024991436563 0.018236145557 0 0.025243875316 0.018420349048 0 0.025496314069 0.018604552538 0 
0.025748752822 0.018788756029 0 0.026001191575 0.018972959519 0 0.026253630329 0.019157163009 0 
0.026506069082 0.0193413665 0 0.026758507835 0.01952556999 0 0.027010946588 0.019709773481 0 
0.027263385341 0.019893976971 0 0.027515824094 0.020078180462 0 0.027768262847 0.020262383952 0 
0.028020701601 0.020446587443 0 0.028273140354 0.020630790933 0 0.028525579107 0.020814994424 0 
0.02877801786 0.020999197914 0 0.029030456613 0.021183401405 0 0.029282895366 0.021367604895 0 
0.02953533412 0.021551808386 0 0.029787772873 0.021736011876 0 0.030040211626 0.021920215367 0 
0.030292650379 0.022104418857 0 0.030545089132 0.022288622348 0 0.030797527885 0.022472825838 0 
0.031049966639 0.022657029329 0 0.031302405392 0.022841232819 0 0.031554844145 0.023025436309 0 
0.031807282898 0.0232096398 0 0.032059721651 0.02339384329 0 0.032312160404 0.023578046781 0 
0.023290595627 0.018908943792 0 0.023533205998 0.019105911956 0 0.023775816369 0.019302880121 0 
0.024018426741 0.019499848285 0 0.024261037112 0.01969681645 0 0.024503647483 0.019893784614 0 
0.024746257854 0.020090752779 0 0.024988868225 0.020287720943 0 0.025231478596 0.020484689108 0 
0.025474088967 0.020681657272 0 0.025716699338 0.020878625437 0 0.02595930971 0.021075593601 0 
0.026201920081 0.021272561766 0 0.026444530452 0.02146952993 0 0.026687140823 0.021666498095 0 
0.026929751194 0.021863466259 0 0.027172361565 0.022060434424 0 0.027414971936 0.022257402588 0 
0.027657582307 0.022454370753 0 0.027900192678 0.022651338917 0 0.02814280305 0.022848307082 0 
0.028385413421 0.023045275246 0 0.028628023792 0.023242243411 0 0.028870634163 0.023439211575 0 
0.029113244534 0.02363617974 0 0.029355854905 0.023833147904 0 0.029598465276 0.024030116069 0 
0.029841075647 0.024227084233 0 0.030083686019 0.024424052398 0 0.03032629639 0.024621020562 0 
0.030568906761 0.024817988727 0 0.030811517132 0.025014956891 0 0.031054127503 0.025211925056 0 
0.022282401967 0.020087174082 0 0.022514510321 0.020296415478 0 0.022746618674 0.020505656875 0 
0.022978727028 0.020714898272 0 0.023210835382 0.020924139669 0 0.023442943736 0.021133381065 0 
0.02367505209 0.021342622462 0 0.023907160444 0.021551863859 0 0.024139268797 0.021761105255 0 
0.024371377151 0.021970346652 0 0.024603485505 0.022179588049 0 0.024835593859 0.022388829445 0 
0.025067702213 0.022598070842 0 0.025299810566 0.022807312239 0 0.02553191892 0.023016553635 0 
0.025764027274 0.023225795032 0 0.025996135628 0.023435036429 0 0.026228243982 0.023644277825 0 
0.026460352336 0.023853519222 0 0.026692460689 0.024062760619 0 0.026924569043 0.024272002015 0 
0.027156677397 0.024481243412 0 0.027388785751 0.024690484809 0 0.027620894105 0.024899726206 0 
0.027853002458 0.025108967602 0 0.028085110812 0.025318208999 0 0.028317219166 0.025527450396 0 
0.02854932752 0.025736691792 0 0.028781435874 0.025945933189 0 0.029013544228 0.026155174586 0 
0.029245652581 0.026364415982 0 0.029477760935 0.026573657379 0 0.029709869289 0.026782898776 0 
0.021213203436 0.021213203436 0 0.021434174305 0.021434174305 0 0.021655145174 0.021655145174 0 
0.021876116043 0.021876116043 0 0.022097086912 0.022097086912 0 0.022318057781 0.022318057781 0 
0.02253902865 0.02253902865 0 0.022759999519 0.022759999519 0 0.022980970389 0.022980970389 0 
0.023201941258 0.023201941258 0 0.023422912127 0.023422912127 0 0.023643882996 0.023643882996 0 
0.023864853865 0.023864853865 0 0.024085824734 0.024085824734 0 0.024306795603 0.024306795603 0 
0.024527766472 0.024527766472 0 0.024748737342 0.024748737342 0 0.024969708211 0.024969708211 0 
0.02519067908 0.02519067908 0 0.025411649949 0.025411649949 0 0.025632620818 0.025632620818 0 
0.025853591687 0.025853591687 0 0.026074562556 0.026074562556 0 0.026295533425 0.026295533425 0 
0.026516504294 0.026516504294 0 0.026737475164 0.026737475164 0 0.026958446033 0.026958446033 0 
0.027179416902 0.027179416902 0 0.027400387771 0.027400387771 0 0.02762135864 0.02762135864 0 
0.027842329509 0.027842329509 0 0.028063300378 0.028063300378 0 0.028284271247 0.028284271247 0 
0.020087174082 0.022282401967 0 0.020296415478 0.022514510321 0 0.020505656875 0.022746618674 0 
0.020714898272 0.022978727028 0 0.020924139669 0.023210835382 0 0.021133381065 0.023442943736 0 
0.021342622462 0.02367505209 0 0.021551863859 0.023907160444 0 0.021761105255 0.024139268797 0 
0.021970346652 0.024371377151 0 0.022179588049 0.024603485505 0 0.022388829445 0.024835593859 0 
0.022598070842 0.025067702213 0 0.022807312239 0.025299810566 0 0.023016553635 0.02553191892 0 
0.023225795032 0.025764027274 0 0.023435036429 0.025996135628 0 0.023644277825 0.026228243982 0 
0.023853519222 0.026460352336 0 0.024062760619 0.026692460689 0 0.024272002015 0.026924569043 0 
0.024481243412 0.027156677397 0 0.024690484809 0.027388785751 0 0.024899726206 0.027620894105 0 
0.025108967602 0.027853002458 0 0.025318208999 0.028085110812 0 0.025527450396 0.028317219166 0 
0.025736691792 0.02854932752 0 0.025945933189 0.028781435874 0 0.026155174586 0.029013544228 0 
0.026364415982 0.029245652581 0 0.026573657379 0.029477760935 0 0.026782898776 0.029709869289 0 
0.018908943792 0.023290595627 0 0.019105911956 0.023533205998 0 0.019302880121 0.023775816369 0 
0.019499848285 0.024018426741 0 0.01969681645 0.024261037112 0 0.019893784614 0.024503647483 0 
0.020090752779 0.024746257854 0 0.020287720943 0.024988868225 0 0.020484689108 0.025231478596 0 
0.020681657272 0.025474088967 0 0.020878625437 0.025716699338 0 0.021075593601 0.02595930971 0 
0.021272561766 0.026201920081 0 0.02146952993 0.026444530452 0 0.021666498095 0.026687140823 0 
0.021863466259 0.026929751194 0 0.022060434424 0.027172361565 0 0.022257402588 0.027414971936 0 
0.022454370753 0.027657582307 0 0.022651338917 0.027900192678 0 0.022848307082 0.02814280305 0 
0.023045275246 0.028385413421 0 0.023242243411 0.028628023792 0 0.023439211575 0.028870634163 0 
0.02363617974 0.029113244534 0 0.023833147904 0.029355854905 0 0.024030116069 0.029598465276 0 
0.024227084233 0.029841075647 0 0.024424052398 0.030083686019 0 0.024621020562 0.03032629639 0 
0.024817988727 0.030568906761 0 0.025014956891 0.030811517132 0 0.025211925056 0.031054127503 0 
0.017683535086 0.024234120303 0 0.017867738576 0.024486559056 0 0.018051942067 0.02473899781 0 
0.018236145557 0.024991436563 0 0.018420349048 0.025243875316 0 0.018604552538 0.025496314069 0 
0.018788756029 0.025748752822 0 0.018972959519 0.026001191575 0 0.019157163009 0.026253630329 0 
0.0193413665 0.026506069082 0 0.01952556999 0.026758507835 0 0.019709773481 0.027010946588 0 
0.019893976971 0.027263385341 0 0.020078180462 0.027515824094 0 0.020262383952 0.027768262847 0 
0.020446587443 0.028020701601 0 0.020630790933 0.028273140354 0 0.020814994424 0.028525579107 0 
0.020999197914 0.02877801786 0 0.021183401405 0.029030456613 0 0.021367604895 0.029282895366 0 
0.021551808386 0.02953533412 0 0.021736011876 0.029787772873 0 0.021920215367 0.030040211626 0 
0.022104418857 0.030292650379 0 0.022288622348 0.030545089132 0 0.022472825838 0.030797527885 0 
0.022657029329 0.031049966639 0 0.022841232819 0.031302405392 0 0.023025436309 0.031554844145 0 
0.0232096398 0.031807282898 0 0.02339384329 0.032059721651 0 0.023578046781 0.032312160404 0 
0.016416292602 0.025109865337 0 0.016587295649 0.025371426434 0 0.016758298697 0.025632987531 0 
0.016929301745 0.025894548628 0 0.017100304793 0.026156109726 0 0.017271307841 0.026417670823 0 
0.017442310889 0.02667923192 0 0.017613313937 0.026940793017 0 0.017784316985 0.027202354115 0 
0.017955320033 0.027463915212 0 0.018126323081 0.027725476309 0 0.018297326129 0.027987037406 0 
0.018468329177 0.028248598504 0 0.018639332225 0.028510159601 0 0.018810335273 0.028771720698 0 
0.018981338321 0.029033281795 0 0.019152341368 0.029294842893 0 0.019323344416 0.02955640399 0 
0.019494347464 0.029817965087 0 0.019665350512 0.030079526184 0 0.01983635356 0.030341087282 0 
0.020007356608 0.030602648379 0 0.020178359656 0.030864209476 0 0.020349362704 0.031125770573 0 
0.020520365752 0.031387331671 0 0.0206913688 0.031648892768 0 0.020862371848 0.031910453865 0 
0.021033374896 0.032172014962 0 0.021204377944 0.03243357606 0 0.021375380992 0.032695137157 0 
0.02154638404 0.032956698254 0 0.021717387087 0.033218259351 0 0.021888390135 0.033479820449 0 
0.01511280733 0.025915305412 0 0.015270232406 0.02618525651 0 0.015427657482 0.026455207609 0 
0.015585082559 0.026725158707 0 0.015742507635 0.026995109805 0 0.015899932711 0.027265060903 0 
0.016057357788 0.027535012001 0 0.016214782864 0.027804963099 0 0.01637220794 0.028074914197 0 
0.016529633017 0.028344865295 0 0.016687058093 0.028614816393 0 0.016844483169 0.028884767491 0 
0.017001908246 0.029154718589 0 0.017159333322 0.029424669687 0 0.017316758398 0.029694620785 0 
0.017474183475 0.029964571883 0 0.017631608551 0.030234522981 0 0.017789033628 0.030504474079 0 
0.017946458704 0.030774425177 0 0.01810388378 0.031044376275 0 0.018261308857 0.031314327373 0 
0.018418733933 0.031584278471 0 0.018576159009 0.031854229569 0 0.018733584086 0.032124180667 0 
0.018891009162 0.032394131766 0 0.019048434238 0.032664082864 0 0.019205859315 0.032934033962 0 
0.019363284391 0.03320398506 0 0.019520709467 0.033473936158 0 0.019678134544 0.033743887256 0 
0.01983555962 0.034013838354 0 0.019992984696 0.034283789452 0 0.020150409773 0.03455374055 0 
0.013778837792 0.026648520205 0 0.013922367352 0.026926108957 0 0.014065896912 0.027203697709 0 
0.014209426473 0.027481286461 0 0.014352956033 0.027758875213 0 0.014496485593 0.028036463966 0 
0.014640015154 0.028314052718 0 0.014783544714 0.02859164147 0 0.014927074274 0.028869230222 0 
0.015070603835 0.029146818974 0 0.015214133395 0.029424407726 0 0.015357662955 0.029701996478 0 
0.015501192516 0.029979585231 0 0.015644722076 0.030257173983 0 0.015788251636 0.030534762735 0 
0.015931781197 0.030812351487 0 0.016075310757 0.031089940239 0 0.016218840317 0.031367528991 0 
0.016362369878 0.031645117743 0 0.016505899438 0.031922706495 0 0.016649428998 0.032200295248 0 
0.016792958559 0.032477884 0 0.016936488119 0.032755472752 0 0.017080017679 0.033033061504 0 
0.01722354724 0.033310650256 0 0.0173670768 0.033588239008 0 0.01751060636 0.03386582776 0 
0.017654135921 0.034143416513 0 0.017797665481 0.034421005265 0 0.017941195041 0.034698594017 0 
0.018084724602 0.034976182769 0 0.018228254162 0.035253771521 0 0.018371783722 0.035531360273 0 
0.012420230416 0.027308201633 0 0.012549607816 0.027592662066 0 0.012678985216 0.0278771225 0 
0.012808362617 0.028161582934 0 0.012937740017 0.028446043367 0 0.013067117417 0.028730503801 0 
0.013196494817 0.029014964235 0 0.013325872217 0.029299424668 0 0.013455249617 0.029583885102 0 
0.013584627018 0.029868345536 0 0.013714004418 0.030152805969 0 0.013843381818 0.030437266403 0 
0.013972759218 0.030721726837 0 0.014102136618 0.03100618727 0 0.014231514018 0.031290647704 0 
0.014360891419 0.031575108138 0 0.014490268819 0.031859568571 0 0.014619646219 0.032144029005 0 
0.014749023619 0.032428489439 0 0.014878401019 0.032712949873 0 0.015007778419 0.032997410306 0 
0.01513715582 0.03328187074 0 0.01526653322 0.033566331174 0 0.01539591062 0.033850791607 0 
0.01552528802 0.034135252041 0 0.01565466542 0.034419712475 0 0.01578404282 0.034704172908 0 
0.015913420221 0.034988633342 0 0.016042797621 0.035273093776 0 0.016172175021 0.035557554209 0 
0.016301552421 0.035842014643 0 0.016430929821 0.036126475077 0 0.016560307221 0.03641093551 0 
0.011042841287 0.027893649032 0 0.011157870884 0.028184207876 0 0.01127290048 0.02847476672 0 
0.011387930077 0.028765325564 0 0.011502959674 0.029055884408 0 0.011617989271 0.029346443252 0 
0.011733018867 0.029637002096 0 0.011848048464 0.02992756094 0 0.011963078061 0.030218119785 0 
0.012078107657 0.030508678629 0 0.012193137254 0.030799237473 0 0.012308166851 0.031089796317 0 
0.012423196448 0.031380355161 0 0.012538226044 0.031670914005 0 0.012653255641 0.031961472849 0 
0.012768285238 0.032252031693 0 0.012883314835 0.032542590537 0 0.012998344431 0.032833149381 0 
0.013113374028 0.033123708225 0 0.013228403625 0.033414267069 0 0.013343433222 0.033704825914 0 
0.013458462818 0.033995384758 0 0.013573492415 0.034285943602 0 0.013688522012 0.034576502446 0 
0.013803551609 0.03486706129 0 0.013918581205 0.035157620134 0 0.014033610802 0.035448178978 0 
0.014148640399 0.035738737822 0 0.014263669996 0.036029296666 0 0.014378699592 0.03631985551 0 
0.014493729189 0.036610414354 0 0.014608758786 0.036900973198 0 0.014723788382 0.037191532042 0 
0.0096524612915 0.028404752965 0 0.0097530077632 0.028700635809 0 0.009853554235 0.028996518652 0 
0.0099541007068 0.029292401495 0 0.010054647179 0.029588284339 0 0.01015519365 0.029884167182 0 
0.010255740122 0.030180050026 0 0.010356286594 0.030475932869 0 0.010456833066 0.030771815712 0 
0.010557379538 0.031067698556 0 0.010657926009 0.031363581399 0 0.010758472481 0.031659464243 0 
0.010859018953 0.031955347086 0 0.010959565425 0.032251229929 0 0.011060111896 0.032547112773 0 
0.011160658368 0.032842995616 0 0.01126120484 0.033138878459 0 0.011361751312 0.033434761303 0 
0.011462297784 0.033730644146 0 0.011562844255 0.03402652699 0 0.011663390727 0.034322409833 0 
0.011763937199 0.034618292676 0 0.011864483671 0.03491417552 0 0.011965030143 0.035210058363 0 
0.012065576614 0.035505941207 0 0.012166123086 0.03580182405 0 0.012266669558 0.036097706893 0 
0.01236721603 0.036393589737 0 0.012467762501 0.03668947258 0 0.012568308973 0.036985355424 0 
0.012668855445 0.037281238267 0 0.012769401917 0.03757712111 0 0.012869948389 0.037873003954 0 
0.0082547464454 0.028841968746 0 0.0083407333875 0.02914240592 0 0.0084267203296 0.029442843094 0 
0.0085127072718 0.029743280269 0 0.0085986942139 0.030043717443 0 0.0086846811561 0.030344154618 0 
0.0087706680982 0.030644591792 0 0.0088566550403 0.030945028967 0 0.0089426419825 0.031245466141 0 
0.0090286289246 0.031545903316 0 0.0091146158668 0.03184634049 0 0.0092006028089 0.032146777664 0 
0.009286589751 0.032447214839 0 0.0093725766932 0.032747652013 0 0.0094585636353 0.033048089188 0 
0.0095445505774 0.033348526362 0 0.0096305375196 0.033648963537 0 0.0097165244617 0.033949400711 0 
0.0098025114039 0.034249837885 0 0.009888498346 0.03455027506 0 0.0099744852881 0.034850712234 0 
0.01006047223 0.035151149409 0 0.010146459172 0.035451586583 0 0.010232446115 0.035752023758 0 
0.010318433057 0.036052460932 0 0.010404419999 0.036352898106 0 0.010490406941 0.036653335281 0 
0.010576393883 0.036953772455 0 0.010662380825 0.03725420963 0 0.010748367767 0.037554646804 0 
0.01083435471 0.037855083979 0 0.010920341652 0.038155521153 0 0.011006328594 0.038455958327 0 
0.0068551548722 0.029206281031 0 0.0069265627354 0.029510513125 0 0.0069979705987 0.029814745219 0 
0.0070693784619 0.030118977314 0 0.0071407863252 0.030423209408 0 0.0072121941885 0.030727441502 0 
0.0072836020517 0.031031673596 0 0.007355009915 0.03133590569 0 0.0074264177782 0.031640137784 0 
0.0074978256415 0.031944369878 0 0.0075692335047 0.032248601972 0 0.007640641368 0.032552834066 0 
0.0077120492312 0.03285706616 0 0.0077834570945 0.033161298254 0 0.0078548649577 0.033465530348 0 
0.007926272821 0.033769762442 0 0.0079976806842 0.034073994536 0 0.0080690885475 0.034378226631 0 
0.0081404964107 0.034682458725 0 0.008211904274 0.034986690819 0 0.0082833121372 0.035290922913 0 
0.0083547200005 0.035595155007 0 0.0084261278637 0.035899387101 0 0.008497535727 0.036203619195 0 
0.0085689435902 0.036507851289 0 0.0086403514535 0.036812083383 0 0.0087117593167 0.037116315477 0 
0.00878316718 0.037420547571 0 0.0088545750432 0.037724779665 0 0.0089259829065 0.038029011759 0 
0.0089973907698 0.038333243854 0 0.009068798633 0.038637475948 0 0.0091402064963 0.038941708042 0 
0.0054588915724 0.029499161052 0 0.0055157550262 0.02980644398 0 0.0055726184801 0.030113726908 0 
0.005629481934 0.030421009835 0 0.0056863453879 0.030728292763 0 0.0057432088418 0.031035575691 0 
0.0058000722956 0.031342858618 0 0.0058569357495 0.031650141546 0 0.0059137992034 0.031957424474 0 
0.0059706626573 0.032264707401 0 0.0060275261112 0.032571990329 0 0.006084389565 0.032879273256 0 
0.0061412530189 0.033186556184 0 0.0061981164728 0.033493839112 0 0.0062549799267 0.033801122039 0 
0.0063118433805 0.034108404967 0 0.0063687068344 0.034415687895 0 0.0064255702883 0.034722970822 0 
0.0064824337422 0.03503025375 0 0.0065392971961 0.035337536677 0 0.0065961606499 0.035644819605 0 
0.0066530241038 0.035952102533 0 0.0067098875577 0.03625938546 0 0.0067667510116 0.036566668388 0 
0.0068236144655 0.036873951316 0 0.0068804779193 0.037181234243 0 0.0069373413732 0.037488517171 0 
0.0069942048271 0.037795800099 0 0.007051068281 0.038103083026 0 0.0071079317348 0.038410365954 0 
0.0071647951887 0.038717648881 0 0.0072216586426 0.039024931809 0 0.0072785220965 0.039332214737 0 
0.0040708617533 0.02972251814 0 0.0041132665632 0.030032127704 0 0.0041556713732 0.030341737268 0 
0.0041980761831 0.030651346832 0 0.004240480993 0.030960956396 0 0.004282885803 0.03127056596 0 
0.0043252906129 0.031580175524 0 0.0043676954228 0.031889785088 0 0.0044101002328 0.032199394652 0 
0.0044525050427 0.032509004216 0 0.0044949098526 0.03281861378 0 0.0045373146625 0.033128223344 0 
0.0045797194725 0.033437832908 0 0.0046221242824 0.033747442472 0 0.0046645290923 0.034057052035 0 
0.0047069339023 0.034366661599 0 0.0047493387122 0.034676271163 0 0.0047917435221 0.034985880727 0 
0.0048341483321 0.035295490291 0 0.004876553142 0.035605099855 0 0.0049189579519 0.035914709419 0 
0.0049613627618 0.036224318983 0 0.0050037675718 0.036533928547 0 0.0050461723817 0.036843538111 0 
0.0050885771916 0.037153147675 0 0.0051309820016 0.037462757239 0 0.0051733868115 0.037772366803 0 
0.0052157916214 0.038081976367 0 0.0052581964314 0.038391585931 0 0.0053006012413 0.038701195495 0 
0.0053430060512 0.039010805059 0 0.0053854108611 0.039320414623 0 0.0054278156711 0.039630024187 0 
0.0026956331369 0.029878647258 0 0.0027237126488 0.030189883167 0 0.0027517921606 0.030501119076 0 
0.0027798716725 0.030812354985 0 0.0028079511843 0.031123590894 0 0.0028360306961 0.031434826803 0 
0.002864110208 0.031746062712 0 0.0028921897198 0.032057298621 0 0.0029202692317 0.03236853453 0 
0.0029483487435 0.032679770439 0 0.0029764282554 0.032991006348 0 0.0030045077672 0.033302242257 0 
0.003032587279 0.033613478166 0 0.0030606667909 0.033924714075 0 0.0030887463027 0.034235949984 0 
0.0031168258146 0.034547185893 0 0.0031449053264 0.034858421801 0 0.0031729848383 0.03516965771 0 
0.0032010643501 0.035480893619 0 0.0032291438619 0.035792129528 0 0.0032572233738 0.036103365437 0 
0.0032853028856 0.036414601346 0 0.0033133823975 0.036725837255 0 0.0033414619093 0.037037073164 0 
0.0033695414212 0.037348309073 0 0.003397620933 0.037659544982 0 0.0034257004448 0.037970780891 0 
0.0034537799567 0.0382820168 0 0.0034818594685 0.038593252709 0 0.0035099389804 0.038904488618 0 
0.0035380184922 0.039215724527 0 0.0035660980041 0.039526960436 0 0.0035941775159 0.039838196345 0 
0.0013374073245 0.029970174201 0 0.0013513386508 0.030282363516 0 0.0013652699771 0.03059455283 0 
0.0013792013033 0.030906742145 0 0.0013931326296 0.03121893146 0 0.0014070639559 0.031531120774 0 
0.0014209952822 0.031843310089 0 0.0014349266085 0.032155499403 0 0.0014488579348 0.032467688718 0 
0.0014627892611 0.032779878033 0 0.0014767205874 0.033092067347 0 0.0014906519137 0.033404256662 0 
0.00150458324 0.033716445976 0 0.0015185145663 0.034028635291 0 0.0015324458926 0.034340824606 0 
0.0015463772189 0.03465301392 0 0.0015603085452 0.034965203235 0 0.0015742398715 0.035277392549 0 
0.0015881711978 0.035589581864 0 0.0016021025241 0.035901771178 0 0.0016160338504 0.036213960493 0 
0.0016299651767 0.036526149808 0 0.001643896503 0.036838339122 0 0.0016578278293 0.037150528437 0 
0.0016717591556 0.037462717751 0 0.0016856904819 0.037774907066 0 0.0016996218082 0.038087096381 0 
0.0017135531345 0.038399285695 0 0.0017274844608 0.03871147501 0 0.0017414157871 0.039023664324 0 
0.0017553471134 0.039335853639 0 0.0017692784396 0.039648042954 0 0.0017832097659 0.039960232268 0 
4.9065389334e-18 0.03 0 4.9832036042e-18 0.0303125 0 5.0598682751e-18 0.030625 0 
5.1365329459e-18 0.0309375 0 5.2131976167e-18 0.03125 0 5.2898622876e-18 0.0315625 0 
5.3665269584e-18 0.031875 0 5.4431916292e-18 0.0321875 0 5.5198563001e-18 0.0325 0 
5.5965209709e-18 0.0328125 0 5.6731856417e-18 0.033125 0 5.7498503126e-18 0.0334375 0 
5.8265149834e-18 0.03375 0 5.9031796542e-18 0.0340625 0 5.9798443251e-18 0.034375 0 
6.0565089959e-18 0.0346875 0 6.1331736667e-18 0.035 0 6.2098383376e-18 0.0353125 0 
6.2865030084e-18 0.035625 0 6.3631676792e-18 0.0359375 0 6.4398323501e-18 0.03625 0 
6.5164970209e-18 0.0365625 0 6.5931616917e-18 0.036875 0 6.6698263626e-18 0.0371875 0 
6.7464910334e-18 0.0375 0 6.8231557042e-18 0.0378125 0 6.8998203751e-18 0.038125 0 
6.9764850459e-18 0.0384375 0 7.0531497167e-18 0.03875 0 7.1298143876e-18 0.0390625 0 
7.2064790584e-18 0.039375 0 7.2831437292e-18 0.0396875 0 7.3598084001e-18 0.04 0 

CELLS 1025 4096
OFFSETS vtktypeint64
0 4 8 12 16 20 24 28 32 
36 40 44 48 52 56 60 64 68 
72 76 80 84 88 92 96 100 104 
108 112 116 120 124 128 132 136 140 
144 148 152 156 160 164 168 172 176 
180 184 188 192 196 200 204 208 212 
216 220 224 228 232 236 240 244 248 
252 256 260 264 268 272 276 280 284 
288 292 296 300 304 308 312 316 320 
324 328 332 336 340 344 348 352 356 
360 364 368 372 376 380 384 388 392 
396 400 404 408 412 416 420 424 428 
432 436 440 444 448 452 456 460 464 
468 472 476 480 484 488 492 496 500 
504 508 512 516 520 524 528 532 536 
540 544 548 552 556 560 564 568 572 
576 580 584 588 592 596 600 604 608 
612 616 620 624 628 632 636 640 644 
648 652 656 660 664 668 672 676 680 
684 688 692 696 700 704 708 712 716 
720 724 728 732 736 740 744 748 752 
756 760 764 768 772 776 780 784 788 
792 796 800 804 808 812 816 820 824 
828 832 836 840 844 848 852 856 860 
864 868 872 876 880 884 888 892 896 
900 904 908 912 916 920 924 928 932 
936 940 944 948 952 956 960 964 968 
972 976 980 984 988 992 996 1000 1004 
1008 1012 1016 1020 1024 1028 1032 1036 1040 
1044 1048 1052 1056 1060 1064 1068 1072 1076 
1080 1084 1088 1092 1096 1100 1104 1108 1112 
1116 1120 1124 1128 1132 1136 1140 1144 1148 
1152 1156 1160 1164 1168 1172 1176 1180 1184 
1188 1192 1196 1200 1204 1208 1212 1216 1220 
1224 1228 1232 1236 1240 1244 1248 1252 1256 
1260 1264 1268 1272 1276 1280 1284 1288 1292 
1296 1300 1304 1308 1312 1316 1320 1324 1328 
1332 1336 1340 1344 1348 1352 1356 1360 1364 
1368 1372 1376 1380 1384 1388 1392 1396 1400 
1404 1408 1412 1416 1420 1424 1428 1432 1436 
1440 1444 1448 1452 1456 1460 1464 1468 1472 
1476 1480 1484 1488 1492 1496 1500 1504 1508 
1512 1516 1520 1524 1528 1532 1536 1540 1544 
1548 1552 1556 1560 1564 1568 1572 1576 1580 
1584 1588 1592 1596 1600 1604 1608 1612 1616 
1620 1624 1628 1632 1636 1640 1644 1648 1652 
1656 1660 1664 1668 1672 1676 1680 1684 1688 
1692 1696 1700 1704 1708 1712 1716 1720 1724 
1728 1732 1736 1740 1744 1748 1752 1756 1760 
1764 1768 1772 1776 1780 1784 1788 1792 1796 
1800 1804 1808 1812 1816 1820 1824 1828 1832 
1836 1840 1844 1848 1852 1856 1860 1864 1868 
1872 1876 1880 1884 1888 1892 1896 1900 1904 
1908 1912 1916 1920 1924 1928 1932 1936 1940 
1944 1948 1952 1956 1960 1964 1968 1972 1976 
1980 1984 1988 1992 1996 2000 2004 2008 2012 
2016 2020 2024 2028 2032 2036 2040 2044 2048 
2052 2056 2060 2064 2068 2072 2076 2080 2084 
2088 2092 2096 2100 2104 2108 2112 2116 2120 
2124 2128 2132 2136 2140 2144 2148 2152 2156 
2160 2164 2168 2172 2176 2180 2184 2188 2192 
2196 2200 2204 2208 2212 2216 2220 2224 2228 
2232 2236 2240 2244 2248 2252 2256 2260 2264 
2268 2272 2276 2280 2284 2288 2292 2296 2300 
2304 2308 2312 2316 2320 2324 2328 2332 2336 
2340 2344 2348 2352 2356 2360 2364 2368 2372 
2376 2380 2384 2388 2392 2396 2400 2404 2408 
2412 2416 2420 2424 2428 2432 2436 2440 2444 
2448 2452 2456 2460 2464 2468 2472 2476 2480 
2484 2488 2492 2496 2500 2504 2508 2512 2516 
2520 2524 2528 2532 2536 2540 2544 2548 2552 
2556 2560 2564 2568 2572 2576 2580 2584 2588 
2592 2596 2600 2604 2608 2612 2616 2620 2624 
2628 2632 2636 2640 2644 2648 2652 2656 2660 
2664 2668 2672 2676 2680 2684 2688 2692 2696 
2700 2704 2708 2712 2716 2720 2724 2728 2732 
2736 2740 2744 2748 2752 2756 2760 2764 2768 
2772 2776 2780 2784 2788 2792 2796 2800 2804 
2808 2812 2816 2820 2824 2828 2832 2836 2840 
2844 2848 2852 2856 2860 2864 2868 2872 2876 
2880 2884 2888 2892 2896 2900 2904 2908 2912 
2916 2920 2924 2928 2932 2936 2940 2944 2948 
2952 2956 2960 2964 2968 2972 2976 2980 2984 
2988 2992 2996 3000 3004 3008 3012 3016 3020 
3024 3028 3032 3036 3040 3044 3048 3052 3056 
3060 3064 3068 3072 3076 3080 3084 3088 3092 
3096 3100 3104 3108 3112 3116 3120 3124 3128 
3132 3136 3140 3144 3148 3152 3156 3160 3164 
3168 3172 3176 3180 3184 3188 3192 3196 3200 
3204 3208 3212 3216 3220 3224 3228 3232 3236 
3240 3244 3248 3252 3256 3260 3264 3268 3272 
3276 3280 3284 3288 3292 3296 3300 3304 3308 
3312 3316 3320 3324 3328 3332 3336 3340 3344 
3348 3352 3356 3360 3364 3368 3372 3376 3380 
3384 3388 3392 3396 3400 3404 3408 3412 3416 
3420 3424 3428 3432 3436 3440 3444 3448 3452 
3456 3460 3464 3468 3472 3476 3480 3484 3488 
3492 3496 3500 3504 3508 3512 3516 3520 3524 
3528 3532 3536 3540 3544 3548 3552 3556 3560 
3564 3568 3572 3576 3580 3584 3588 3592 3596 
3600 3604 3608 3612 3616 3620 3624 3628 3632 
3636 3640 3644 3648 3652 3656 3660 3664 3668 
3672 3676 3680 3684 3688 3692 3696 3700 3704 
3708 3712 3716 3720 3724 3728 3732 3736 3740 
3744 3748 3752 3756 3760 3764 3768 3772 3776 
3780 3784 3788 3792 3796 3800 3804 3808 3812 
3816 3820 3824 3828 3832 3836 3840 3844 3848 
3852 3856 3860 3864 3868 3872 3876 3880 3884 
3888 3892 3896 3900 3904 3908 3912 3916 3920 
3924 3928 3932 3936 3940 3944 3948 3952 3956 
3960 3964 3968 3972 3976 3980 3984 3988 3992 
3996 4000 4004 4008 4012 4016 4020 4024 4028 
4032 4036 4040 4044 4048 4052 4056 4060 4064 
4068 4072 4076 4080 4084 4088 4092 4096 
CONNECTIVITY vtktypeint64
0 33 34 1 1 34 35 2 2 
35 36 3 3 36 37 4 4 37 
38 5 5 38 39 6 6 39 40 
7 7 40 41 8 8 41 42 9 
9 42 43 10 10 43 44 11 11 
44 45 12 12 45 46 13 13 46 
47 14 14 47 48 15 15 48 49 
16 16 49 50 17 17 50 51 18 
18 51 52 19 19 52 53 20 20 
53 54 21 21 54 55 22 22 55 
56 23 23 56 57 24 24 57 58 
25 25 58 59 26 26 59 60 27 
27 60 61 28 28 61 62 29 29 
62 63 30 30 63 64 31 31 64 
65 32 33 66 67 34 34 67 68 
35 35 68 69 36 36 69 70 37 
37 70 71 38 38 71 72 39 39 
72 73 40 40 73 74 41 41 74 
75 42 42 75 76 43 43 76 77 
44 44 77 78 45 45 78 79 46 
46 79 80 47 47 80 81 48 48 
81 82 49 49 82 83 50 50 83 
84 51 51 84 85 52 52 85 86 
53 53 86 87 54 54 87 88 55 
55 88 89 56 56 89 90 57 57 
90 91 58 58 91 92 59 59 92 
93 60 60 93 94 61 61 94 95 
62 62 95 96 63 63 96 97 64 
64 97 98 65 66 99 100 67 67 
100 101 68 68 101 102 69 69 102 
103 70 70 103 104 71 71 104 105 
72 72 105 106 73 73 106 107 74 
74 107 108 75 75 108 109 76 76 
109 110 77 77 110 111 78 78 111 
112 79 79 112 113 80 80 113 114 
81 81 114 115 82 82 115 116 83 
83 116 117 84 84 117 118 85 85 
118 119 86 86 119 120 87 87 120 
121 88 88 121 122 89 89 122 123 
90 90 123 124 91 91 124 125 92 
92 125 126 93 93 126 127 94 94 
127 128 95 95 128 129 96 96 129 
130 97 97 130 131 98 99 132 133 
100 100 133 134 101 101 134 135 102 
102 135 136 103 103 136 137 104 104 
137 138 105 105 138 139 106 106 139 
140 107 107 140 141 108 108 141 142 
109 109 142 143 110 110 143 144 111 
111 144 145 112 112 145 146 113 113 
146 147 114 114 147 148 115 115 148 
149 116 116 149 150 117 117 150 151 
118 118 151 152 119 119 152 153 120 
120 153 154 121 121 154 155 122 122 
155 156 123 123 156 157 124 124 157 
158 125 125 158 159 126 126 159 160 
127 127 160 161 128 128 161 162 129 
129 162 163 130 130 163 164 131 132 
165 166 133 133 166 167 134 134 167 
168 135 135 168 169 136 136 169 170 
137 137 170 171 138 138 171 172 139 
139 172 173 140 140 173 174 141 141 
174 175 142 142 175 176 143 143 176 
177 144 144 177 178 145 145 178 179 
146 146 179 180 147 147 180 181 148 
148 181 182 149 149 182 183 150 150 
183 184 151 151 184 185 152 152 185 
186 153 153 186 187 154 154 187 188 
155 155 188 189 156 156 189 190 157 
157 190 191 158 158 191 192 159 159 
192 193 160 160 193 194 161 161 194 
195 162 162 195 196 163 163 196 197 
164 165 198 199 166 166 199 200 167 
167 200 201 168 168 201 202 169 169 
202 203 170 170 203 204 171 171 204 
205 172 172 205 206 173 173 206 207 
174 174 207 208 175 175 208 209 176 
176 209 210 177 177 210 211 178 178 
211 212 179 179 212 213 180 180 213 
214 181 181 214 215 182 182 215 216 
183 183 216 217 184 184 217 218 185 
185 218 219 186 186 219 220 187 187 
220 221 188 188 221 222 189 189 222 
223 190 190 223 224 191 191 224 225 
192 192 225 226 193 193 226 227 194 
194 227 228 195 195 228 229 196 196 
229 230 197 198 231 232 199 199 232 
233 200 200 233 234 201 201 234 235 
202 202 235 236 203 203 236 237 204 
204 237 238 205 205 238 239 206 206 
239 240 207 207 240 241 208 208 241 
242 209 209 242 243 210 210 243 244 
211 211 244 245 212 212 245 246 213 
213 246 247 214 214 247 248 215 215 
248 249 216 216 249 250 217 217 250 
251 218 218 251 252 219 219 252 253 
220 220 253 254 221 221 254 255 222 
222 255 256 223 223 256 257 224 224 
257 258 225 225 258 259 226 226 259 
260 227 227 260 261 228 228 261 262 
229 229 262 263 230 231 264 265 232 
232 265 266 233 233 266 267 234 234 
267 268 235 235 268 269 236 236 269 
270 237 237 270 271 238 238 271 272 
239 239 272 273 240 240 273 274 241 
241 274 275 242 242 275 276 243 243 
276 277 244 244 277 278 245 245 278 
279 246 246 279 280 247 247 280 281 
248 248 281 282 249 249 282 283 250 
250 283 284 251 251 284 285 252 252 
285 286 253 253 286 287 254 254 287 
288 255 255 288 289 256 256 289 290 
257 257 290 291 258 258 291 292 259 
259 292 293 260 260 293 294 261 261 
294 295 262 262 295 296 263 264 297 
298 265 265 298 299 266 266 299 300 
267 267 300 301 268 268 301 302 269 
269 302 303 270 270 303 304 271 271 
304 305 272 272 305 306 273 273 306 
307 274 274 307 308 275 275 308 309 
276 276 309 310 277 277 310 311 278 
278 311 312 279 279 312 313 280 280 
313 314 281 281 314 315 282 282 315 
316 283 283 316 317 284 284 317 318 
285 285 318 319 286 286 319 320 287 
287 320 321 288 288 321 322 289 289 
322 323 290 290 323 324 291 291 324 
325 292 292 325 326 293 293 326 327 
294 294 327 328 295 295 328 329 296 
297 330 331 298 298 331 332 299 299 
332 333 300 300 333 334 301 301 334 
335 302 302 335 336 303 303 336 337 
304 304 337 338 305 305 338 339 306 
306 339 340 307 307 340 341 308 308 
341 342 309 309 342 343 310 310 343 
344 311 311 344 345 312 312 345 346 
313 313 346 347 314 314 347 348 315 
315 348 349 316 316 349 350 317 317 
350 351 318 318 351 352 319 319 352 
353 320 320 353 354 321 321 354 355 
322 322 355 356 323 323 356 357 324 
324 357 358 325 325 358 359 326 326 
359 360 327 327 360 361 328 328 361 
362 329 330 363 364 331 331 364 365 
332 332 365 366 333 333 366 367 334 
334 367 368 335 335 368 369 336 336 
369 370 337 337 370 371 338 338 371 
372 339 339 372 373 340 340 373 374 
341 341 374 375 342 342 375 376 343 
343 376 377 344 344 377 378 345 345 
378 379 346 346 379 380 347 347 380 
381 348 348 381 382 349 349 382 383 
350 350 383 384 351 351 384 385 352 
352 385 386 353 353 386 387 354 354 
387 388 355 355 388 389 356 356 389 
390 357 357 390 391 358 358 391 392 
359 359 392 393 360 360 393 394 361 
361 394 395 362 363 396 397 364 364 
397 398 365 365 398 399 366 366 399 
400 367 367 400 401 368 368 401 402 
369 369 402 403 370 370 403 404 371 
371 404 405 372 372 405 406 373 373 
406 407 374 374 407 408 375 375 408 
409 376 376 409 410 377 377 410 411 
378 378 411 412 379 379 412 413 380 
380 413 414 381 381 414 415 382 382 
415 416 383 383 416 417 384 384 417 
418 385 385 418 419 386 386 419 420 
387 387 420 421 388 388 421 422 389 
389 422 423 390 390 423 424 391 391 
424 425 392 392 425 426 393 393 426 
427 394 394 427 428 395 396 429 430 
397 397 430 431 398 398 431 432 399 
399 432 433 400 400 433 434 401 401 
434 435 402 402 435 436 403 403 436 
437 404 404 437 438 405 405 438 439 
406 406 439 440 407 407 440 441 408 
408 441 442 409 409 442 443 410 410 
443 444 411 411 444 445 412 412 445 
446 413 413 446 447 414 414 447 448 
415 415 448 449 416 416 449 450 417 
417 450 451 418 418 451 452 419 419 
452 453 420 420 453 454 421 421 454 
455 422 422 455 456 423 423 456 457 
424 424 457 458 425 425 458 459 426 
426 459 460 427 427 460 461 428 429 
462 463 430 430 463 464 431 431 464 
465 432 432 465 466 433 433 466 467 
434 434 467 468 435 435 468 469 436 
436 469 470 437 437 470 471 438 438 
471 472 439 439 472 473 440 440 473 
474 441 441 474 475 442 442 475 476 
443 443 476 477 444 444 477 478 445 
445 478 479 446 446 479 480 447 447 
480 481 448 448 481 482 449 449 482 
483 450 450 483 484 451 451 484 485 
452 452 485 486 453 453 486 487 454 
454 487 488 455 455 488 489 456 456 
489 490 457 457 490 491 458 458 491 
492 459 459 492 493 460 460 493 494 
461 462 495 496 463 463 496 497 464 
464 497 498 465 465 498 499 466 466 
499 500 467 467 500 501 468 468 501 
502 469 469 502 503 470 470 503 504 
471 471 504 505 472 472 505 506 473 
473 506 507 474 474 507 508 475 475 
508 509 476 476 509 510 477 477 510 
511 478 478 511 512 479 479 512 513 
480 480 513 514 481 481 514 515 482 
482 515 516 483 483 516 517 484 484 
517 518 485 485 518 519 486 486 519 
520 487 487 520 521 488 488 521 522 
489 489 522 523 490 490 523 524 491 
491 524 525 492 492 525 526 493 493 
526 527 494 495 528 529 496 496 529 
530 497 497 530 531 498 498 531 532 
499 499 532 533 500 500 533 534 501 
501 534 535 502 502 535 536 503 503 
536 537 504 504 537 538 505 505 538 
539 506 506 539 540 507 507 540 541 
508 508 541 542 509 509 542 543 510 
510 543 544 511 511 544 545 512 512 
545 546 513 513 546 547 514 514 547 
548 515 515 548 549 516 516 549 550 
517 517 550 551 518 518 551 552 519 
519 552 553 520 520 553 554 521 521 
554 555 522 522 555 556 523 523 556 
557 524 524 557 558 525 525 558 559 
526 526 559 560 527 528 561 562 529 
529 562 563 530 530 563 564 531 531 
564 565 532 532 565 566 533 533 566 
567 534 534 567 568 535 535 568 569 
536 536 569 570 537 537 570 571 538 
538 571 572 539 539 572 573 540 540 
573 574 541 541 574 575 542 542 575 
576 543 543 576 577 544 544 577 578 
545 545 578 579 546 546 579 580 547 
547 580 581 548 548 581 582 549 549 
582 583 550 550 583 584 551 551 584 
585 552 552 585 586 553 553 586 587 
554 554 587 588 555 555 588 589 556 
556 589 590 557 557 590 591 558 558 
591 592 559 559 592 593 560 561 594 
595 562 562 595 596 563 563 596 597 
564 564 597 598 565 565 598 599 566 
566 599 600 567 567 600 601 568 568 
601 602 569 569 602 603 570 570 603 
604 571 571 604 605 572 572 605 606 
573 573 606 607 574 574 607 608 575 
575 608 609 576 576 609 610 577 577 
610 611 578 578 611 612 579 579 612 
613 580 580 613 614 581 581 614 615 
582 582 615 616 583 583 616 617 584 
584 617 618 585 585 618 619 586 586 
619 620 587 587 620 621 588 588 621 
622 589 589 622 623 590 590 623 624 
591 591 624 625 592 592 625 626 593 
594 627 628 595 595 628 629 596 596 
629 630 597 597 630 631 598 598 631 
632 599 599 632 633 600 600 633 634 
601 601 634 635 602 602 635 636 603 
603 636 637 604 604 637 638 605 605 
638 639 606 606 639 640 607 607 640 
641 608 608 641 642 609 609 642 643 
610 610 643 644 611 611 644 645 612 
612 645 646 613 613 646 647 614 614 
647 648 615 615 648 649 616 616 649 
650 617 617 650 651 618 618 651 652 
619 619 652 653 620 620 653 654 621 
621 654 655 622 622 655 656 623 623 
656 657 624 624 657 658 625 625 658 
659 626 627 660 661 628 628 661 662 
629 629 662 663 630 630 663 664 631 
631 664 665 632 632 665 666 633 633 
666 667 634 634 667 668 635 635 668 
669 636 636 669 670 637 637 670 671 
638 638 671 672 639 639 672 673 640 
640 673 674 641 641 674 675 642 642 
675 676 643 643 676 677 644 644 677 
678 645 645 678 679 646 646 679 680 
647 647 680 681 648 648 681 682 649 
649 682 683 650 650 683 684 651 651 
684 685 652 652 685 686 653 653 686 
687 654 654 687 688 655 655 688 689 
656 656 689 690 657 657 690 691 658 
658 691 692 659 660 693 694 661 661 
694 695 662 662 695 696 663 663 696 
697 664 664 697 698 665 665 698 699 
666 666 699 700 667 667 700 701 668 
668 701 702 669 669 702 703 670 670 
703 704 671 671 704 705 672 672 705 
706 673 673 706 707 674 674 707 708 
675 675 708 709 676 676 709 710 677 
677 710 711 678 678 711 712 679 679 
712 713 680 680 713 714 681 681 714 
715 682 682 715 716 683 683 716 717 
684 684 717 718 685 685 718 719 686 
686 719 720 687 687 720 721 688 688 
721 722 689 689 722 723 690 690 723 
724 691 691 724 725 692 693 726 727 
694 694 727 728 695 695 728 729 696 
696 729 730 697 697 730 731 698 698 
731 732 699 699 732 733 700 700 733 
734 701 701 734 735 702 702 735 736 
703 703 736 737 704 704 737 738 705 
705 738 739 706 706 739 740 707 707 
740 741 708 708 741 742 709 709 742 
743 710 710 743 744 711 711 744 745 
712 712 745 746 713 713 746 747 714 
714 747 748 715 715 748 749 716 716 
749 750 717 717 750 751 718 718 751 
752 719 719 752 753 720 720 753 754 
721 721 754 755 722 722 755 756 723 
723 756 757 724 724 757 758 725 726 
759 760 727 727 760 761 728 728 761 
762 729 729 762 763 730 730 763 764 
731 731 764 765 732 732 765 766 733 
733 766 767 734 734 767 768 735 735 
768 769 736 736 769 770 737 737 770 
771 738 738 771 772 739 739 772 773 
740 740 773 774 741 741 774 775 742 
742 775 776 743 743 776 777 744 744 
777 778 745 745 778 779 746 746 779 
780 747 747 780 781 748 748 781 782 
749 749 782 783 750 750 783 784 751 
751 784 785 752 752 785 786 753 753 
786 787 754 754 787 788 755 755 788 
789 756 756 789 790 757 757 790 791 
758 759 792 793 760 760 793 794 761 
761 794 795 762 762 795 796 763 763 
796 797 764 764 797 798 765 765 798 
799 766 766 799 800 767 767 800 801 
768 768 801 802 769 769 802 803 770 
770 803 804 771 771 804 805 772 772 
805 806 773 773 806 807 774 774 807 
808 775 775 808 809 776 776 809 810 
777 777 810 811 778 778 811 812 779 
779 812 813 780 780 813 814 781 781 
814 815 782 782 815 816 783 783 816 
817 784 784 817 818 785 785 818 819 
786 786 819 820 787 787 820 821 788 
788 821 822 789 789 822 823 790 790 
823 824 791 792 825 826 793 793 826 
827 794 794 827 828 795 795 828 829 
796 796 829 830 797 797 830 831 798 
798 831 832 799 799 832 833 800 800 
833 834 801 801 834 835 802 802 835 
836 803 803 836 837 804 804 837 838 
805 805 838 839 806 806 839 840 807 
807 840 841 808 808 841 842 809 809 
842 843 810 810 843 844 811 811 844 
845 812 812 845 846 813 813 846 847 
814 814 847 848 815 815 848 849 816 
816 849 850 817 817 850 851 818 818 
851 852 819 819 852 853 820 820 853 
854 821 821 854 855 822 822 855 856 
823 823 856 857 824 825 858 859 826 
826 859 860 827 827 860 861 828 828 
861 862 829 829 862 863 830 830 863 
864 831 831 864 865 832 832 865 866 
833 833 866 867 834 834 867 868 835 
835 868 869 836 836 869 870 837 837 
870 871 838 838 871 872 839 839 872 
873 840 840 873 874 841 841 874 875 
842 842 875 876 843 843 876 877 844 
844 877 878 845 845 878 879 846 846 
879 880 847 847 880 881 848 848 881 
882 849 849 882 883 850 850 883 884 
851 851 884 885 852 852 885 886 853 
853 886 887 854 854 887 888 855 855 
888 889 856 856 889 890 857 858 891 
892 859 859 892 893 860 860 893 894 
861 861 894 895 862 862 895 896 863 
863 896 897 864 864 897 898 865 865 
898 899 866 866 899 900 867 867 900 
901 868 868 901 902 869 869 902 903 
870 870 903 904 871 871 904 905 872 
872 905 906 873 873 906 907 874 874 
907 908 875 875 908 909 876 876 909 
910 877 877 910 911 878 878 911 912 
879 879 912 913 880 880 913 914 881 
881 914 915 882 882 915 916 883 883 
916 917 884 884 917 918 885 885 918 
919 886 886 919 920 887 887 920 921 
888 888 921 922 889 889 922 923 890 
891 924 925 892 892 925 926 893 893 
926 927 894 894 927 928 895 895 928 
929 896 896 929 930 897 897 930 931 
898 898 931 932 899 899 932 933 900 
900 933 934 901 901 934 935 902 902 
935 936 903 903 936 937 904 904 937 
938 905 905 938 939 906 906 939 940 
907 907 940 941 908 908 941 942 909 
909 942 943 910 910 943 944 911 911 
944 945 912 912 945 946 913 913 946 
947 914 914 947 948 915 915 948 949 
916 916 949 950 917 917 950 951 918 
918 951 952 919 919 952 953 920 920 
953 954 921 921 954 955 922 922 955 
956 923 924 957 958 925 925 958 959 
926 926 959 960 927 927 960 961 928 
928 961 962 929 929 962 963 930 930 
963 964 931 931 964 965 932 932 965 
966 933 933 966 967 934 934 967 968 
935 935 968 969 936 936 969 970 937 
937 970 971 938 938 971 972 939 939 
972 973 940 940 973 974 941 941 974 
975 942 942 975 976 943 943 976 977 
944 944 977 978 945 945 978 979 946 
946 979 980 947 947 980 981 948 948 
981 982 949 949 982 983 950 950 983 
984 951 951 984 985 952 952 985 986 
953 953 986 987 954 954 987 988 955 
955 988 989 956 957 990 991 958 958 
991 992 959 959 992 993 960 960 993 
994 961 961 994 995 962 962 995 996 
963 963 996 997 964 964 997 998 965 
965 998 999 966 966 999 1000 967 967 
1000 1001 968 968 1001 1002 969 969 1002 
1003 970 970 1003 1004 971 971 1004 1005 
972 972 1005 1006 973 973 1006 1007 974 
974 1007 1008 975 975 1008 1009 976 976 
1009 1010 977 977 1010 1011 978 978 1011 
1012 979 979 1012 1013 980 980 1013 1014 
981 981 1014 1015 982 982 1015 1016 983 
983 1016 1017 984 984 1017 1018 985 985 
1018 1019 986 986 1019 1020 987 987 1020 
1021 988 988 1021 1022 989 990 1023 1024 
991 991 1024 1025 992 992 1025 1026 993 
993 1026 1027 994 994 1027 1028 995 995 
1028 1029 996 996 1029 1030 997 997 1030 
1031 998 998 1031 1032 999 999 1032 1033 
1000 1000 1033 1034 1001 1001 1034 1035 1002 
1002 1035 1036 1003 1003 1036 1037 1004 1004 
1037 1038 1005 1005 1038 1039 1006 1006 1039 
1040 1007 1007 1040 1041 1008 1008 1041 1042 
1009 1009 1042 1043 1010 1010 1043 1044 1011 
1011 1044 1045 1012 1012 1045 1046 1013 1013 
1046 1047 1014 1014 1047 1048 1015 1015 1048 
1049 1016 1016 1049 1050 1017 1017 1050 1051 
1018 1018 1051 1052 1019 1019 1052 1053 1020 
1020 1053 1054 1021 1021 1054 1055 1022 1023 
1056 1057 1024 1024 1057 1058 1025 1025 1058 
1059 1026 1026 1059 1060 1027 1027 1060 1061 
1028 1028 1061 1062 1029 1029 1062 1063 1030 
1030 1063 1064 1031 1031 1064 1065 1032 1032 
1065 1066 1033 1033 1066 1067 1034 1034 1067 
1068 1035 1035 1068 1069 1036 1036 1069 1070 
1037 1037 1070 1071 1038 1038 1071 1072 1039 
1039 1072 1073 1040 1040 1073 1074 1041 1041 
1074 1075 1042 1042 1075 1076 1043 1043 1076 
1077 1044 1044 1077 1078 1045 1045 1078 1079 
1046 1046 1079 1080 1047 1047 1080 1081 1048 
1048 1081 1082 1049 1049 1082 1083 1050 1050 
1083 1084 1051 1051 1084 1085 1052 1052 1085 
1086 1053 1053 1086 1087 1054 1054 1087 1088 
1055 
CELL_TYPES 1024
9
9
9
9
9
9
9
9
9
9
9
9
9
9
9
9
9
9
9
9
9
9
9
9
9
9
9
9
9
9
9
9
9
9
9
9
9
9
9
9
9
9
9
9
9
9
9
9
9
9
9
9
9
9
9
9
9
9
9
9
9
9
9
9
9
9
9
9
9
9
9
9
9
9
9
9
9
9
9
9
9
9
9
9
9
9
9
9
9
9
9
9
9
9
9
9
9
9
9
9
9
9
9
9
9
9
9
9
9
9
9
9
9
9
9
9
9
9
9
9
9
9
9
9
9
9
9
9
9
9
9
9
9
9
9
9
9
9
9
9
9
9
9
9
9
9
9
9
9
9
9
9
9
9
9
9
9
9
9
9
9
9
9
9
9
9
9
9
9
9
9
9
9
9
9
9
9
9
9
9
9
9
9
9
9
9
9
9
9
9
9
9
9
9
9
9
9
9
9
9
9
9
9
9
9
9
9
9
9
9
9
9
9
9
9
9
9
9
9
9
9
9
9
9
9
9
9
9
9
9
9
9
9
9
9
9
9
9
9
9
9
9
9
9
9
9
9
9
9
9
9
9
9
9
9
9
9
9
9
9
9
9
9
9
9
9
9
9
9
9
9
9
9
9
9
9
9
9
9
9
9
9
9
9
9
9
9
9
9
9
9
9
9
9
9
9
9
9
9
9
9
9
9
9
9
9
9
9
9
9
9
9
9
9
9
9
9
9
9
9
9
9
9
9
9
9
9
9
9
9
9
9
9
9
9
9
9
9
9
9
9
9
9
9
9
9
9
9
9
9
9
9
9
9
9
9
9
9
9
9
9
9
9
9
9
9
9
9
9
9
9
9
9
9
9
9
9
9
9
9
9
9
9
9
9
9
9
9
9
9
9
9
9
9
9
9
9
9
9
9
9
9
9
9
9
9
9
9
9
9
9
9
9
9
9
9
9
9
9
9
9
9
9
9
9
9
9
9
9
9
9
9
9
9
9
9
9
9
9
9
9
9
9
9
9
9
9
9
9
9
9
9
9
9
9
9
9
9
9
9
9
9
9
9
9
9
9
9
9
9
9
9
9
9
9
9
9
9
9
9
9
9
9
9
9
9
9
9
9
9
9
9
9
9
9
9
9
9
9
9
9
9
9
9
9
9
9
9
9
9
9
9
9
9
9
9
9
9
9
9
9
9
9
9
9
9
9
9
9
9
9
9
9
9
9
9
9
9
9
9
9
9
9
9
9
9
9
9
9
9
9
9
9
9
9
9
9
9
9
9
9
9
9
9
9
9
9
9
9
9
9
9
9
9
9
9
9
9
9
9
9
9
9
9
9
9
9
9
9
9
9
9
9
9
9
9
9
9
9
9
9
9
9
9
9
9
9
9
9
9
9
9
9
9
9
9
9
9
9
9
9
9
9
9
9
9
9
9
9
9
9
9
9
9
9
9
9
9
9
9
9
9
9
9
9
9
9
9
9
9
9
9
9
9
9
9
9
9
9
9
9
9
9
9
9
9
9
9
9
9
9
9
9
9
9
9
9
9
9
9
9
9
9
9
9
9
9
9
9
9
9
9
9
9
9
9
9
9
9
9
9
9
9
9
9
9
9
9
9
9
9
9
9
9
9
9
9
9
9
9
9
9
9
9
9
9
9
9
9
9
9
9
9
9
9
9
9
9
9
9
9
9
9
9
9
9
9
9
9
9
9
9
9
9
9
9
9
9
9
9
9
9
9
9
9
9
9
9
9
9
9
9
9
9
9
9
9
9
9
9
9
9
9
9
9
9
9
9
9
9
9
9
9
9
9
9
9
9
9
9
9
9
9
9
9
9
9
9
9
9
9
9
9
9
9
9
9
9
9
9
9
9
9
9
9
9
9
9
9
9
9
9
9
9
9
9
9
9
9
9
9
9
9
9
9
9
9
9
9
9
9
9
9
9
9
9
9
9
9
9
9
9
9
9
9
9
9
9
9
9
9
9
9
9
9
9
9
9
9
9
9
9
9
9
9
9
9
9
9
9
9
9
9
9
9
9
9
9
9
9
9
9
9
9
9
9
9
9
9
9
9
9
9
9
9
9
9
9
9
9
9
9
9
9
9
9
9
9
9
9
9
9
9
9
9
9
9
9
9
9
9
9
9
9
9
9
9
9
9
9
9
9
9
9
9
9
9
9
9
9
9
9
9
9
9
9
9
9
9
9
9
9
9
9
9
9
9
9
9
9
9
9
9
9
9
9
9
9
9
9
9
9
9
9
9
9
9
9
9
9
9
9
9
9
9
9
9
9
9
9
9
9
9
9
9
9
9
9
9
9
9
9
9
9

POINT_DATA 1089
FIELD FieldData 11
P1 1 1089 double
0 0 1.255615695e-10 2.5849394142e-26 -7.5336941698e-10 2.0679515314e-25 4.3946549324e-09 1.6543612251e-24 -2.5614560177e-08 
1.3234889801e-23 1.4929270613e-07 2.623542409e-07 1.7927528697e-07 -6.6174449004e-24 -1.7552746438e-07 -2.623542409e-07 -1.7552746427e-07 -6.6174449004e-24 
1.7927528642e-07 2.623542409e-07 1.4929270933e-07 -1.6130021945e-23 -2.5614578845e-08 -2.5849394142e-26 4.394763738e-09 4.8467614017e-25 -7.540035825e-10 
8.8857292364e-27 1.29257757e-10 1.0097419587e-27 -2.15429595e-11 -8.0779356695e-28 0 3.1737544988e-07 3.0386730176e-07 3.1704156824e-07 
3.3377247621e-07 3.3093425255e-07 3.2002037878e-07 3.1252433638e-07 2.5119367691e-07 7.877595192e-08 -7.7483922123e-08 -9.0341028756e-08 -4.1177404962e-08 
-1.1375087728e-08 -9.9118876823e-09 -4.5765615457e-08 -3.5035725425e-08 1.0617832804e-07 2.5262208158e-07 2.7904107183e-07 2.7837746186e-07 3.4357341472e-07 
3.0171566507e-07 -2.0109052437e-08 -2.5267479533e-07 -2.6755621116e-08 3.0711184988e-07 3.9839099735e-07 3.1644871947e-07 1.3065191444e-07 -1.4478807225e-10 
8.2913241598e-08 2.3652149155e-07 3.1737544988e-07 2.6901856889e-07 2.7189026767e-07 2.6594030092e-07 2.6553272314e-07 2.8503158889e-07 2.6845628314e-07 
1.5982619091e-07 -2.9577358875e-09 -1.8199454534e-07 -2.6957357957e-07 -1.5798418067e-07 7.2451515062e-10 5.4503371714e-08 2.10716936e-09 -1.5770931157e-07 
-2.7056825248e-07 -1.8209183477e-07 -3.2614006035e-09 1.5494170786e-07 2.6927976154e-07 3.1651503135e-07 2.7234768437e-07 1.1247788765e-07 3.2726070251e-09 
1.1109880833e-07 2.7120050881e-07 3.1882172573e-07 2.6921558261e-07 1.3763520299e-07 3.078051319e-11 -6.7647491163e-08 1.614257116e-10 2.6901856889e-07 
1.1935709709e-07 3.1341091451e-07 1.2302679966e-07 -1.0860631846e-07 -3.8299510846e-08 8.8310971413e-08 2.5588877231e-08 -7.7735040661e-08 -7.293002953e-08 
-2.8932294754e-08 -1.467804171e-08 1.4341629805e-08 1.0263562e-07 1.5184097999e-07 6.3594760913e-08 -5.8190454072e-08 -1.0960208181e-07 -9.4501627854e-08 
-1.6750597745e-08 1.0811677181e-07 2.6456624412e-07 3.386667855e-07 2.164873623e-07 9.5120380827e-08 1.7165824738e-07 2.7532646964e-07 2.3535055527e-07 
1.3023504119e-07 3.848446433e-08 1.699519671e-09 6.1480902207e-08 1.2998222399e-07 1.1935709709e-07 -1.5864112001e-09 2.7718859353e-07 3.1432933898e-08 
-2.7832384374e-07 -1.9155219302e-07 2.7909962566e-10 5.7012477393e-09 1.7256556344e-09 1.6536372762e-07 2.8364299807e-07 1.4359100134e-07 2.1475468288e-11 
1.0774815847e-07 2.8131150497e-07 3.3525196961e-07 2.8451783242e-07 1.4405737341e-07 2.7331323883e-09 -5.0592350851e-08 -2.7757964499e-11 1.7031822939e-07 
2.7567100963e-07 1.3125598115e-07 -2.7703122406e-09 1.3374867327e-07 2.7947702543e-07 1.7307883201e-07 -2.2400490385e-09 -6.3273759774e-08 -1.0212135252e-10 
1.9719504507e-07 2.7967964621e-07 -1.5864112001e-09 -2.4660310448e-08 -2.3908627544e-08 6.0132492556e-08 1.5083570515e-07 1.7157366553e-07 1.397773913e-07 
7.2877900074e-08 4.8726439359e-08 1.4517425668e-07 2.1732679798e-07 1.202895092e-07 2.2381535268e-08 9.1922021089e-08 2.1124494546e-07 2.6268428716e-07 
2.564664291e-07 2.0281775417e-07 1.5427015625e-07 1.6335552924e-07 1.3962270942e-07 -7.3794669295e-09 -1.644652233e-07 -2.1844878321e-07 -1.5682211746e-07 
3.2922803131e-08 1.6955764994e-07 7.1854094331e-08 -6.9524888927e-08 -6.3916325086e-08 -7.0094342238e-09 5.5065635796e-09 -6.8748792903e-09 -2.4660310448e-08 
4.0092899104e-10 -2.9026651212e-07 1.018278537e-07 5.7925614682e-07 5.445904876e-07 2.8916211366e-07 1.0430226263e-07 -1.7065884196e-09 -2.0581962425e-08 
-2.9820598987e-09 4.3491864442e-10 -1.2843704964e-09 9.0672897772e-10 -4.1423810993e-09 -2.7582298893e-08 -4.6847119083e-09 1.2927869235e-07 2.8991406183e-07 
3.9282754448e-07 2.8897193873e-07 -1.7069995699e-07 -5.8018719043e-07 -5.3348880936e-07 -2.8979015707e-07 -1.0827657688e-07 -2.9147449666e-09 1.2328662463e-08 
2.5792281601e-09 3.2962534874e-08 3.4032738661e-10 -1.9842564952e-07 -2.896379357e-07 4.0092899104e-10 7.609306634e-09 -2.1185741975e-07 4.874280477e-08 
3.8437138713e-07 3.8998973426e-07 2.1126474089e-07 -6.1366982592e-09 -1.5458759063e-07 -1.2646094365e-07 -5.7451317565e-08 -8.3253272619e-08 -1.4714158531e-07 
-1.9239103215e-07 -2.3374486707e-07 -2.8594634403e-07 -2.2609617381e-07 6.8704932803e-08 3.5454129788e-07 3.8749724348e-07 1.8973167071e-07 -2.1659651935e-07 
-5.464007232e-07 -5.1459433736e-07 -3.4452358759e-07 -2.5953469967e-07 -1.5929622005e-07 5.6523304784e-08 2.2086768675e-07 1.6668073775e-07 2.7515497195e-08 
-6.3074995506e-08 -7.8555479359e-08 7.609306634e-09 -1.1915517701e-10 2.5217763558e-09 -5.2944461474e-09 -3.9844440751e-09 2.6035161184e-08 -3.1097065541e-09 
-1.7929312347e-07 -2.9605494611e-07 -1.4693503099e-07 9.2468546635e-10 -1.1961773313e-07 -2.9615490882e-07 -3.1627946361e-07 -2.9384992634e-07 -3.4272482584e-07 
-2.9449576982e-07 1.9245634033e-08 2.9292276362e-07 2.2095899684e-07 -2.2469731138e-09 -1.8229645306e-07 -2.9130418538e-07 -3.0138491242e-07 -2.9330441136e-07 
-3.4782845934e-07 -2.9651548011e-07 2.9076102613e-08 2.9355926363e-07 1.6154697776e-07 -1.0482662287e-09 1.7168602043e-07 2.9893425251e-07 -1.1915517701e-10 
-4.6108183076e-09 7.1878860208e-08 3.2178370823e-08 -5.532021106e-08 -1.2222481004e-07 -1.9632530358e-07 -3.0541156917e-07 -3.2127373229e-07 -1.1570191841e-07 
3.8464489103e-08 -1.316138931e-07 -3.2335999648e-07 -2.3419675248e-07 -9.4805016195e-08 -1.3586564274e-07 -1.7614644138e-07 -3.4415221399e-08 1.0269895985e-07 
4.8567045006e-08 -6.8921666511e-08 -1.2187787528e-07 -1.2897277695e-07 -1.0887756719e-07 -1.4154427617e-07 -3.0692493407e-07 -3.9632229935e-07 -2.0103913049e-07 
-6.9017733268e-09 -9.9736573696e-08 -1.4442180679e-07 1.9416425222e-07 4.0958133711e-07 -4.6108183076e-09 9.3493858477e-11 -1.168081111e-09 2.335662464e-08 
8.5939223534e-12 -1.4487119045e-07 -3.0072840408e-07 -3.5700872252e-07 -2.9995835494e-07 -1.1582351046e-07 -8.1015566769e-10 -1.5112425717e-07 -2.9993611487e-07 
-1.8041602869e-07 -5.7474386714e-10 3.1576994357e-08 1.7090971511e-09 -4.5085243197e-09 -7.8168594962e-11 1.9978657853e-09 1.1945527418e-09 -3.0131338049e-09 
1.6119695429e-09 2.7307026183e-08 1.1369353812e-09 -1.498334036e-07 -2.9779223027e-07 -3.1492778417e-07 -3.0190935418e-07 -3.5940622918e-07 -3.0146709757e-07 
5.7859352264e-08 2.9842794213e-07 9.3493858477e-11 1.079577941e-08 -1.4433542307e-07 -1.6031800587e-07 -1.4739680665e-07 -2.1581666305e-07 -3.012498248e-07 
-3.3936854159e-07 -3.1393335992e-07 -2.0870482627e-07 -1.3466626971e-07 -2.0280101932e-07 -3.1335269802e-07 -3.6656492873e-07 -3.1688277645e-07 -1.1875130618e-07 
8.5932465074e-08 1.5527152028e-07 1.5454584022e-07 1.4903540567e-07 1.5595411075e-07 1.9251584958e-07 1.9797327182e-07 1.1157902713e-07 3.2689475987e-08 
6.0660978839e-08 7.6268234767e-08 -3.9714057152e-08 -2.0908706862e-07 -3.5365197135e-07 -3.5546720127e-07 -9.6591194294e-08 1.2486636184e-07 1.079577941e-08 
-1.6928137877e-10 -3.0521946778e-07 -3.573868193e-07 -3.0485101064e-07 -2.9579171648e-07 -3.0428549914e-07 -3.0440892098e-07 -3.0385226925e-07 -3.1030583126e-07 
-3.0529805669e-07 -2.7035739528e-07 -3.0385679018e-07 -5.041691846e-07 -6.0946235986e-07 -3.5790409734e-07 -1.0904597741e-09 2.0938249009e-07 3.0470389158e-07 
3.16062884e-07 3.0501753434e-07 3.3312590956e-07 3.0437291481e-07 1.2274345522e-07 -2.8517307081e-10 1.4676432608e-07 3.0471515861e-07 2.1439053042e-07 
1.2467570165e-09 -2.0925984609e-07 -3.0350703987e-07 -1.678725853e-07 -6.5911994653e-10 -1.6928137877e-10 -3.9117160034e-08 -4.1311501606e-07 -3.7180877277e-07 
-2.2824561938e-07 -2.9547274508e-07 -3.7819591714e-07 -2.8112090283e-07 -1.9485713017e-07 -3.1001402716e-07 -4.172830245e-07 -3.0735555288e-07 -1.9502349917e-07 
-2.9507875023e-07 -4.2155564941e-07 -3.8848854007e-07 -2.4106808362e-07 -2.4484941498e-08 1.8753975378e-07 3.2128486968e-07 3.6266879527e-07 2.9760991963e-07 
1.7811566693e-07 5.6193461334e-08 -2.232488541e-08 -1.1607561552e-08 3.0379841884e-08 4.5671733876e-08 1.0381083348e-08 -9.9379140774e-08 -1.7371961847e-07 
-1.0275102972e-07 -1.5031001311e-08 -3.9117160034e-08 1.8722924178e-10 -3.060307378e-07 -1.7878554149e-07 9.0972081971e-10 -1.4795804823e-07 -3.0619740275e-07 
-1.5461689686e-07 7.5042488e-10 -1.4612848208e-07 -3.0601082458e-07 -1.8965380949e-07 7.5121889779e-10 6.3012916276e-08 1.6522801571e-09 -1.7880969195e-07 
-3.0667175881e-07 -2.1023267921e-07 -7.1486998007e-10 2.1065925206e-07 3.0627220198e-07 1.6850649488e-07 -6.6993733003e-10 7.1083727209e-10 1.0674178177e-10 
-1.7502430071e-07 -3.0778780023e-07 -1.8128926682e-07 -4.8964918706e-11 3.1412841023e-08 6.4940551834e-10 -4.786016921e-09 7.1586666179e-11 1.8722924178e-10 
1.8484285545e-07 7.8393135022e-08 1.4670800339e-07 2.2344458645e-07 1.4226001007e-07 6.130952506e-08 1.387483822e-07 2.2246422671e-07 1.6034470379e-07 
8.5209680247e-08 1.2987902289e-07 2.2253529025e-07 2.9136104086e-07 2.9055970096e-07 1.7433469682e-07 3.422652339e-08 -3.822432435e-08 -2.8433462798e-08 
7.818349165e-08 1.5126199241e-07 6.043749289e-08 -3.5285030737e-08 2.3099397699e-08 5.6231289778e-08 -1.1524884291e-07 -2.395358094e-07 -6.4824418688e-08 
1.7400788205e-07 2.4208364566e-07 1.8014976873e-07 2.8953147851e-08 -2.9988421678e-08 1.8484285545e-07 3.0776938324e-07 3.0821399519e-07 3.079826104e-07 
3.0767934627e-07 3.0790832021e-07 3.0817641212e-07 3.0799050193e-07 3.077529251e-07 3.0786601707e-07 3.0825255579e-07 3.0883531917e-07 3.0775303048e-07 
3.03144413e-07 3.0778258859e-07 3.3444067912e-07 3.0822312082e-07 1.5423434987e-07 1.5872775796e-10 -2.6319384051e-08 -1.5232973323e-10 3.707546533e-09 
8.7117695245e-11 3.8132567007e-09 3.4719318519e-10 -2.4849843215e-08 2.8913954259e-10 1.478311335e-07 3.0781154975e-07 3.7026579938e-07 3.0750212758e-07 
9.182877957e-08 -2.5016257244e-10 3.0776938324e-07 1.8474094437e-07 2.8717325255e-08 8.917098253e-08 1.8385138531e-07 1.3050800271e-07 6.1542681913e-08 
1.0935727012e-07 1.5401310067e-07 7.5571506895e-08 5.7495903941e-09 7.6264452756e-08 1.5389789663e-07 1.0543172467e-07 3.5369665376e-08 4.8215447261e-08 
6.9061647785e-08 2.3000844409e-08 -3.8049991672e-08 -6.2173889264e-08 -4.9335017828e-08 5.0245317408e-10 -1.2043987096e-09 -1.4299849593e-07 -2.3977723008e-07 
-1.0643799275e-07 8.0305759108e-08 1.4374056852e-07 1.7791438594e-07 2.7687516182e-07 3.3949797065e-07 2.6465788689e-07 1.7289288624e-07 1.8474094437e-07 
1.8579176462e-10 -3.0673142554e-07 -1.7957156437e-07 3.5125039739e-10 -1.4827710611e-07 -3.0619411402e-07 -1.5413725345e-07 -2.1509263735e-10 -1.525361998e-07 
-3.0713162585e-07 -1.6003242169e-07 -2.1692596301e-10 -1.1666347729e-07 -3.0578468781e-07 -3.6399316964e-07 -3.0618040206e-07 -1.4723786437e-07 -8.5051314069e-10 
1.929669505e-08 -3.9471988763e-10 2.6476761959e-08 -1.8922285345e-10 -1.8049303777e-07 -3.0790597948e-07 -1.758993447e-07 5.6109119675e-10 6.5095528387e-09 
6.1371395454e-12 1.3911094101e-07 3.0673450428e-07 3.8578736674e-07 3.0677072903e-07 1.8579176462e-10 -3.8815945049e-08 -2.2856637781e-07 -1.538004928e-07 
-7.3497792854e-08 -2.4663778079e-07 -3.7888505065e-07 -1.7590419643e-07 4.5185050074e-08 -3.2737042888e-08 -1.4470203708e-07 -2.5741494251e-08 4.5569225634e-08 
-2.0934523738e-07 -5.0244943658e-07 -5.4570792526e-07 -3.8175263006e-07 -5.3215477636e-08 2.1596298996e-07 2.018422307e-07 8.2692728686e-08 3.6784968023e-08 
3.9661147054e-08 6.6863464122e-08 5.5150680216e-08 -5.8718443672e-08 -1.5526182183e-07 -1.1499736853e-07 -1.1652328021e-09 1.2299443635e-07 2.2817410018e-07 
2.8506621996e-07 2.2046985259e-07 -3.8815945049e-08 -1.6091195305e-10 -7.5190165802e-10 2.8585364937e-08 -1.2114766315e-09 -1.7920479083e-07 -3.043046471e-07 
-1.7542111489e-07 2.1572157612e-09 2.3141754805e-08 1.6155371584e-09 5.1661597738e-08 2.1679920174e-09 -3.1797722453e-07 -6.0745787919e-07 -5.6495779925e-07 
-3.0433923773e-07 6.0535552367e-08 3.0549364699e-07 2.0636212206e-07 2.1506236008e-09 -6.8131202375e-08 1.1860993811e-09 2.1577198412e-07 3.0545946774e-07 
8.156614413e-11 -3.0337471701e-07 -2.0792237806e-07 9.2593620749e-10 3.7657579036e-08 2.7474205674e-09 -3.3296690553e-09 1.6322426205e-09 -1.6091195305e-10 
9.7185662812e-09 4.2462803482e-08 1.5549988249e-07 1.8311550493e-07 -4.0404627577e-08 -2.9878532702e-07 -3.757514054e-07 -3.6273225101e-07 -3.5115725218e-07 
-3.3697093873e-07 -3.1611784053e-07 -3.6412046135e-07 -5.5650130495e-07 -6.8733484334e-07 -5.5069554853e-07 -2.9487332681e-07 -6.8158084473e-08 1.575827789e-08 
-1.5681614033e-07 -3.4932058448e-07 -3.2519429993e-07 -1.9080760099e-07 -5.2530801969e-08 -2.0201678927e-08 -2.0365800792e-07 -3.6793975136e-07 -2.7808687166e-07 
-1.6779482242e-07 -2.7075905723e-07 -3.9761655376e-07 -3.5900428966e-07 -2.0615000348e-07 9.7185662812e-09 5.2169314847e-11 4.4572281779e-11 1.9148805432e-07 
3.0028785099e-07 5.2349197845e-08 -3.0063385988e-07 -5.0696727695e-07 -6.0133716422e-07 -6.1842963255e-07 -6.0163120204e-07 -5.943283928e-07 -6.0139045493e-07 
-6.2768663855e-07 -6.0300672443e-07 -4.5714049332e-07 -3.0049954146e-07 -2.4349546508e-07 -2.9895577875e-07 -4.7970799702e-07 -6.004561695e-07 -4.759043458e-07 
-3.0090261277e-07 -2.7030105728e-07 -3.0151263564e-07 -3.1195030418e-07 -3.0181259661e-07 -2.7129804662e-07 -3.0032528211e-07 -4.6881293099e-07 -6.0147704177e-07 
-5.2303366297e-07 -3.0026364311e-07 5.2169314847e-11 -7.3344835958e-10 1.6380055232e-08 1.4224641216e-07 2.0354496646e-07 2.6955062126e-08 -2.0519612902e-07 
-3.1058143516e-07 -3.2401996441e-07 -2.8033082489e-07 -2.4340106056e-07 -2.7711771539e-07 -3.190193803e-07 -3.0664464617e-07 -2.6934779672e-07 -2.3648311562e-07 
-2.1759439046e-07 -2.2222540881e-07 -2.6578635968e-07 -3.6368743204e-07 -4.1143756221e-07 -3.0454568645e-07 -1.4171485691e-07 -2.1648125699e-08 2.5784564934e-08 
-2.9286727249e-08 -1.1373034317e-07 -1.5441462374e-07 -1.9191955018e-07 -2.6682510367e-07 -3.2644788336e-07 -3.1810448838e-07 -2.1759848721e-07 -7.3344835958e-10 
6.6648787543e-11 1.2879161091e-09 1.858481419e-09 2.621137308e-09 4.4186763672e-09 -3.5347974164e-09 -3.2025180056e-08 -9.772113834e-10 1.6968436877e-07 
2.8985190651e-07 1.6941774795e-07 -7.3757159626e-10 -2.9733516815e-08 -8.5185936743e-10 2.6256290819e-09 -4.1239216573e-09 -5.9233817759e-09 -4.0689517366e-09 
1.4316799804e-10 -5.2826168827e-09 -3.234190069e-08 4.4325096983e-10 1.7455077249e-07 2.9683568801e-07 1.7415302167e-07 3.8025670811e-10 -3.0605123672e-08 
-1.8655808752e-09 3.5364236877e-09 -1.4739897207e-09 -3.9717008383e-09 -3.5827934179e-09 6.6648787543e-11 -6.2310886082e-09 -1.3768503623e-07 -2.1365981587e-07 
-1.6448887208e-07 7.9494350541e-08 2.4292943417e-07 5.0455960973e-08 -9.8735324917e-08 1.9454632064e-07 4.6013524376e-07 2.2786579052e-07 -1.1658604982e-07 
-1.87544288e-07 -7.7037321354e-08 1.2290645277e-07 2.8675062052e-07 2.8895876806e-07 2.53240554e-07 3.0330563694e-07 2.9440131666e-07 8.1774892937e-08 
-1.3602044088e-07 -1.6043149145e-07 -1.1544922208e-07 -1.2506459607e-07 -1.1386026823e-07 -6.4188933515e-09 7.0247488404e-08 -1.087316312e-08 -5.6997613484e-08 
1.2465737175e-07 2.3970760818e-07 -6.2310886082e-09 -3.8388240324e-10 -2.8648849483e-07 -3.9344683979e-07 -2.8625924416e-07 7.0073965179e-08 2.9095764129e-07 
-8.2033627553e-09 -2.8741062317e-07 -6.6657161751e-09 2.9293080143e-07 7.027837285e-08 -2.8842284131e-07 -3.9697268045e-07 -2.8543155651e-07 1.6140118572e-08 
2.9344099446e-07 3.3216972083e-07 2.9083121202e-07 3.279303824e-07 2.9197724606e-07 3.1481817103e-08 -2.8787178678e-07 -5.003994479e-07 -5.7406504733e-07 
-4.7683246611e-07 -2.8619381649e-07 -7.9641210706e-08 2.3255913318e-09 -1.8079317029e-07 -2.8492973087e-07 3.3983674313e-08 2.9061097916e-07 -3.8388240324e-10 
2.4309216353e-08 -3.2359691704e-07 -4.325094142e-07 -3.5829860167e-07 -1.5683480601e-07 -6.7286894549e-09 -8.6590914239e-08 -1.9507949993e-07 -1.308524661e-07 
-3.3790906913e-08 -4.3775916535e-08 -1.3192053607e-07 -2.6933780661e-07 -3.6176849466e-07 -3.1495336669e-07 -1.9613520844e-07 -7.2556805642e-08 9.4525535226e-09 
3.5635808742e-09 -4.8202893004e-08 -1.0382603753e-07 -1.8558130457e-07 -3.1574414599e-07 -4.1648564583e-07 -4.0997688813e-07 -3.296661566e-07 -2.0900173498e-07 
-1.602487825e-07 -2.9567245839e-07 -3.8568145801e-07 -2.0068447673e-07 1.6813932415e-08 2.4309216353e-08 1.5812960649e-09 -2.8140241822e-07 -3.2697134961e-07 
-2.8415087735e-07 -3.0196638071e-07 -2.7886208451e-07 -1.1328221356e-07 -2.523313247e-09 -1.4388192898e-07 -2.7824060361e-07 -1.4648187996e-07 1.5622715955e-09 
-8.3940119304e-08 -2.8318567682e-07 -4.7637102512e-07 -5.6077795058e-07 -4.3368823959e-07 -2.7761058405e-07 -2.7505367587e-07 -2.809980635e-07 -1.5042429543e-07 
-2.384932812e-09 4.4067463183e-08 -6.2345585395e-09 -1.4845844907e-07 -2.8149084176e-07 -3.0421836993e-07 -2.7955278144e-07 -2.7040582415e-07 -2.8454982172e-07 
-3.2975709784e-07 -2.7729195706e-07 1.5812960649e-09 -1.192719702e-07 -1.9934439449e-07 -1.0210441094e-07 -1.1631905241e-08 -1.1200676308e-07 -1.9260462197e-07 
-4.2801119393e-08 8.5932761716e-08 -5.7873961571e-08 -2.5196381246e-07 -2.7407931415e-07 -2.0228914835e-07 -1.146619968e-07 -7.6711331948e-08 -1.5395062626e-07 
-2.5613096583e-07 -2.9300343678e-07 -2.6244869744e-07 -1.6234740616e-07 -4.9402503013e-08 1.9683071939e-08 8.362981267e-08 1.8115821315e-07 1.9671229894e-07 
1.4736095579e-08 -1.9787283606e-07 -2.742169351e-07 -2.301263418e-07 -8.1431196407e-08 -4.9926100407e-09 -1.7767169382e-07 -3.1169072234e-07 -1.192719702e-07 
-2.6901702713e-07 -4.5173711509e-09 1.9962755072e-07 2.6728905598e-07 1.2233846212e-07 -2.8454519707e-09 1.2411609262e-07 2.6686335754e-07 1.8903660447e-07 
-5.4703772951e-09 -2.1276379845e-07 -2.7315551296e-07 -2.6957374803e-08 2.6456052973e-07 3.4012811436e-07 2.6303895862e-07 9.658664202e-08 -5.6602722084e-09 
1.0986677915e-07 2.6706975087e-07 2.8985059771e-07 2.6682164814e-07 2.8659523062e-07 2.7041957227e-07 1.3954290019e-07 -4.4907193124e-09 -6.0137219921e-08 
-5.0748722797e-09 1.8301805297e-07 2.6740930226e-07 1.136662203e-08 -2.7185911275e-07 -2.6901702713e-07 -3.1738270214e-07 2.5853002578e-07 4.2436445286e-07 
3.2551088407e-07 1.0735962439e-07 1.3384686051e-08 2.8706008132e-07 5.6479414159e-07 4.8299519829e-07 2.630128595e-07 1.2619673331e-07 1.3887654247e-07 
3.6738200977e-07 5.7562638461e-07 5.2752291643e-07 3.8327223126e-07 3.0307495515e-07 2.6390610382e-07 2.4274069297e-07 2.887731035e-07 4.5119771625e-07 
5.6499033794e-07 4.6512677524e-07 3.1078528753e-07 2.6114413415e-07 2.5840465853e-07 2.4476820406e-07 2.6115244839e-07 3.4847506917e-07 3.2494525911e-07 
8.772210904e-09 -3.04013851e-07 -3.1738270214e-07 0 0 1.255615695e-10 2.5849394142e-26 -7.5336941698e-10 2.0679515314e-25 
4.3946549324e-09 1.6543612251e-24 -2.5614560177e-08 1.3234889801e-23 1.4929270613e-07 2.623542409e-07 1.7927528697e-07 -6.6174449004e-24 -1.7552746438e-07 
-2.623542409e-07 -1.7552746427e-07 -6.6174449004e-24 1.7927528642e-07 2.623542409e-07 1.4929270933e-07 -1.6130021945e-23 -2.5614578845e-08 -2.5849394142e-26 
4.394763738e-09 4.8467614017e-25 -7.540035825e-10 8.8857292364e-27 1.29257757e-10 1.0097419587e-27 -2.15429595e-11 -8.0779356695e-28 0 

P2 1 1089 double
0 0 1.255615695e-10 2.5849394142e-26 -7.5336941698e-10 2.0679515314e-25 4.3946549324e-09 1.6543612251e-24 -2.5614560177e-08 
1.3234889801e-23 1.4929270613e-07 2.623542409e-07 1.7927528697e-07 -6.6174449004e-24 -1.7552746438e-07 -2.623542409e-07 -1.7552746427e-07 -6.6174449004e-24 
1.7927528642e-07 2.623542409e-07 1.4929270933e-07 -1.6130021945e-23 -2.5614578845e-08 -2.5849394142e-26 4.394763738e-09 4.8467614017e-25 -7.540035825e-10 
8.8857292364e-27 1.29257757e-10 1.0097419587e-27 -2.15429595e-11 -8.0779356695e-28 0 3.1737544988e-07 3.0386730176e-07 3.1704156824e-07 
3.3377247621e-07 3.3093425255e-07 3.2002037878e-07 3.1252433638e-07 2.5119367691e-07 7.877595192e-08 -7.7483922123e-08 -9.0341028756e-08 -4.1177404962e-08 
-1.1375087728e-08 -9.9118876823e-09 -4.5765615457e-08 -3.5035725425e-08 1.0617832804e-07 2.5262208158e-07 2.7904107183e-07 2.7837746186e-07 3.4357341472e-07 
3.0171566507e-07 -2.0109052437e-08 -2.5267479533e-07 -2.6755621116e-08 3.0711184988e-07 3.9839099735e-07 3.1644871947e-07 1.3065191444e-07 -1.4478807225e-10 
8.2913241598e-08 2.3652149155e-07 3.1737544988e-07 2.6901856889e-07 2.7189026767e-07 2.6594030092e-07 2.6553272314e-07 2.8503158889e-07 2.6845628314e-07 
1.5982619091e-07 -2.9577358875e-09 -1.8199454534e-07 -2.6957357957e-07 -1.5798418067e-07 7.2451515062e-10 5.4503371714e-08 2.10716936e-09 -1.5770931157e-07 
-2.7056825248e-07 -1.8209183477e-07 -3.2614006035e-09 1.5494170786e-07 2.6927976154e-07 3.1651503135e-07 2.7234768437e-07 1.1247788765e-07 3.2726070251e-09 
1.1109880833e-07 2.7120050881e-07 3.1882172573e-07 2.6921558261e-07 1.3763520299e-07 3.078051319e-11 -6.7647491163e-08 1.614257116e-10 2.6901856889e-07 
1.1935709709e-07 3.1341091451e-07 1.2302679966e-07 -1.0860631846e-07 -3.8299510846e-08 8.8310971413e-08 2.5588877231e-08 -7.7735040661e-08 -7.293002953e-08 
-2.8932294754e-08 -1.467804171e-08 1.4341629805e-08 1.0263562e-07 1.5184097999e-07 6.3594760913e-08 -5.8190454072e-08 -1.0960208181e-07 -9.4501627854e-08 
-1.6750597745e-08 1.0811677181e-07 2.6456624412e-07 3.386667855e-07 2.164873623e-07 9.5120380827e-08 1.7165824738e-07 2.7532646964e-07 2.3535055527e-07 
1.3023504119e-07 3.848446433e-08 1.699519671e-09 6.1480902207e-08 1.2998222399e-07 1.1935709709e-07 -1.5864112001e-09 2.7718859353e-07 3.1432933898e-08 
-2.7832384374e-07 -1.9155219302e-07 2.7909962566e-10 5.7012477393e-09 1.7256556344e-09 1.6536372762e-07 2.8364299807e-07 1.4359100134e-07 2.1475468288e-11 
1.0774815847e-07 2.8131150497e-07 3.3525196961e-07 2.8451783242e-07 1.4405737341e-07 2.7331323883e-09 -5.0592350851e-08 -2.7757964499e-11 1.7031822939e-07 
2.7567100963e-07 1.3125598115e-07 -2.7703122406e-09 1.3374867327e-07 2.7947702543e-07 1.7307883201e-07 -2.2400490385e-09 -6.3273759774e-08 -1.0212135252e-10 
1.9719504507e-07 2.7967964621e-07 -1.5864112001e-09 -2.4660310448e-08 -2.3908627544e-08 6.0132492556e-08 1.5083570515e-07 1.7157366553e-07 1.397773913e-07 
7.2877900074e-08 4.8726439359e-08 1.4517425668e-07 2.1732679798e-07 1.202895092e-07 2.2381535268e-08 9.1922021089e-08 2.1124494546e-07 2.6268428716e-07 
2.564664291e-07 2.0281775417e-07 1.5427015625e-07 1.6335552924e-07 1.3962270942e-07 -7.3794669295e-09 -1.644652233e-07 -2.1844878321e-07 -1.5682211746e-07 
3.2922803131e-08 1.6955764994e-07 7.1854094331e-08 -6.9524888927e-08 -6.3916325086e-08 -7.0094342238e-09 5.5065635796e-09 -6.8748792903e-09 -2.4660310448e-08 
4.0092899104e-10 -2.9026651212e-07 1.018278537e-07 5.7925614682e-07 5.445904876e-07 2.8916211366e-07 1.0430226263e-07 -1.7065884196e-09 -2.0581962425e-08 
-2.9820598987e-09 4.3491864442e-10 -1.2843704964e-09 9.0672897772e-10 -4.1423810993e-09 -2.7582298893e-08 -4.6847119083e-09 1.2927869235e-07 2.8991406183e-07 
3.9282754448e-07 2.8897193873e-07 -1.7069995699e-07 -5.8018719043e-07 -5.3348880936e-07 -2.8979015707e-07 -1.0827657688e-07 -2.9147449666e-09 1.2328662463e-08 
2.5792281601e-09 3.2962534874e-08 3.4032738661e-10 -1.9842564952e-07 -2.896379357e-07 4.0092899104e-10 7.609306634e-09 -2.1185741975e-07 4.874280477e-08 
3.8437138713e-07 3.8998973426e-07 2.1126474089e-07 -6.1366982592e-09 -1.5458759063e-07 -1.2646094365e-07 -5.7451317565e-08 -8.3253272619e-08 -1.4714158531e-07 
-1.9239103215e-07 -2.3374486707e-07 -2.8594634403e-07 -2.2609617381e-07 6.8704932803e-08 3.5454129788e-07 3.8749724348e-07 1.8973167071e-07 -2.1659651935e-07 
-5.464007232e-07 -5.1459433736e-07 -3.4452358759e-07 -2.5953469967e-07 -1.5929622005e-07 5.6523304784e-08 2.2086768675e-07 1.6668073775e-07 2.7515497195e-08 
-6.3074995506e-08 -7.8555479359e-08 7.609306634e-09 -1.1915517701e-10 2.5217763558e-09 -5.2944461474e-09 -3.9844440751e-09 2.6035161184e-08 -3.1097065541e-09 
-1.7929312347e-07 -2.9605494611e-07 -1.4693503099e-07 9.2468546635e-10 -1.1961773313e-07 -2.9615490882e-07 -3.1627946361e-07 -2.9384992634e-07 -3.4272482584e-07 
-2.9449576982e-07 1.9245634033e-08 2.9292276362e-07 2.2095899684e-07 -2.2469731138e-09 -1.8229645306e-07 -2.9130418538e-07 -3.0138491242e-07 -2.9330441136e-07 
-3.4782845934e-07 -2.9651548011e-07 2.9076102613e-08 2.9355926363e-07 1.6154697776e-07 -1.0482662287e-09 1.7168602043e-07 2.9893425251e-07 -1.1915517701e-10 
-4.6108183076e-09 7.1878860208e-08 3.2178370823e-08 -5.532021106e-08 -1.2222481004e-07 -1.9632530358e-07 -3.0541156917e-07 -3.2127373229e-07 -1.1570191841e-07 
3.8464489103e-08 -1.316138931e-07 -3.2335999648e-07 -2.3419675248e-07 -9.4805016195e-08 -1.3586564274e-07 -1.7614644138e-07 -3.4415221399e-08 1.0269895985e-07 
4.8567045006e-08 -6.8921666511e-08 -1.2187787528e-07 -1.2897277695e-07 -1.0887756719e-07 -1.4154427617e-07 -3.0692493407e-07 -3.9632229935e-07 -2.0103913049e-07 
-6.9017733268e-09 -9.9736573696e-08 -1.4442180679e-07 1.9416425222e-07 4.0958133711e-07 -4.6108183076e-09 9.3493858477e-11 -1.168081111e-09 2.335662464e-08 
8.5939223534e-12 -1.4487119045e-07 -3.0072840408e-07 -3.5700872252e-07 -2.9995835494e-07 -1.1582351046e-07 -8.1015566769e-10 -1.5112425717e-07 -2.9993611487e-07 
-1.8041602869e-07 -5.7474386714e-10 3.1576994357e-08 1.7090971511e-09 -4.5085243197e-09 -7.8168594962e-11 1.9978657853e-09 1.1945527418e-09 -3.0131338049e-09 
1.6119695429e-09 2.7307026183e-08 1.1369353812e-09 -1.498334036e-07 -2.9779223027e-07 -3.1492778417e-07 -3.0190935418e-07 -3.5940622918e-07 -3.0146709757e-07 
5.7859352264e-08 2.9842794213e-07 9.3493858477e-11 1.079577941e-08 -1.4433542307e-07 -1.6031800587e-07 -1.4739680665e-07 -2.1581666305e-07 -3.012498248e-07 
-3.3936854159e-07 -3.1393335992e-07 -2.0870482627e-07 -1.3466626971e-07 -2.0280101932e-07 -3.1335269802e-07 -3.6656492873e-07 -3.1688277645e-07 -1.1875130618e-07 
8.5932465074e-08 1.5527152028e-07 1.5454584022e-07 1.4903540567e-07 1.5595411075e-07 1.9251584958e-07 1.9797327182e-07 1.1157902713e-07 3.2689475987e-08 
6.0660978839e-08 7.6268234767e-08 -3.9714057152e-08 -2.0908706862e-07 -3.5365197135e-07 -3.5546720127e-07 -9.6591194294e-08 1.2486636184e-07 1.079577941e-08 
-1.6928137877e-10 -3.0521946778e-07 -3.573868193e-07 -3.0485101064e-07 -2.9579171648e-07 -3.0428549914e-07 -3.0440892098e-07 -3.0385226925e-07 -3.1030583126e-07 
-3.0529805669e-07 -2.7035739528e-07 -3.0385679018e-07 -5.041691846e-07 -6.0946235986e-07 -3.5790409734e-07 -1.0904597741e-09 2.0938249009e-07 3.0470389158e-07 
3.16062884e-07 3.0501753434e-07 3.3312590956e-07 3.0437291481e-07 1.2274345522e-07 -2.8517307081e-10 1.4676432608e-07 3.0471515861e-07 2.1439053042e-07 
1.2467570165e-09 -2.0925984609e-07 -3.0350703987e-07 -1.678725853e-07 -6.5911994653e-10 -1.6928137877e-10 -3.9117160034e-08 -4.1311501606e-07 -3.7180877277e-07 
-2.2824561938e-07 -2.9547274508e-07 -3.7819591714e-07 -2.8112090283e-07 -1.9485713017e-07 -3.1001402716e-07 -4.172830245e-07 -3.0735555288e-07 -1.9502349917e-07 
-2.9507875023e-07 -4.2155564941e-07 -3.8848854007e-07 -2.4106808362e-07 -2.4484941498e-08 1.8753975378e-07 3.2128486968e-07 3.6266879527e-07 2.9760991963e-07 
1.7811566693e-07 5.6193461334e-08 -2.232488541e-08 -1.1607561552e-08 3.0379841884e-08 4.5671733876e-08 1.0381083348e-08 -9.9379140774e-08 -1.7371961847e-07 
-1.0275102972e-07 -1.5031001311e-08 -3.9117160034e-08 1.8722924178e-10 -3.060307378e-07 -1.7878554149e-07 9.0972081971e-10 -1.4795804823e-07 -3.0619740275e-07 
-1.5461689686e-07 7.5042488e-10 -1.4612848208e-07 -3.0601082458e-07 -1.8965380949e-07 7.5121889779e-10 6.3012916276e-08 1.6522801571e-09 -1.7880969195e-07 
-3.0667175881e-07 -2.1023267921e-07 -7.1486998007e-10 2.1065925206e-07 3.0627220198e-07 1.6850649488e-07 -6.6993733003e-10 7.1083727209e-10 1.0674178177e-10 
-1.7502430071e-07 -3.0778780023e-07 -1.8128926682e-07 -4.8964918706e-11 3.1412841023e-08 6.4940551834e-10 -4.786016921e-09 7.1586666179e-11 1.8722924178e-10 
1.8484285545e-07 7.8393135022e-08 1.4670800339e-07 2.2344458645e-07 1.4226001007e-07 6.130952506e-08 1.387483822e-07 2.2246422671e-07 1.6034470379e-07 
8.5209680247e-08 1.2987902289e-07 2.2253529025e-07 2.9136104086e-07 2.9055970096e-07 1.7433469682e-07 3.422652339e-08 -3.822432435e-08 -2.8433462798e-08 
7.818349165e-08 1.5126199241e-07 6.043749289e-08 -3.5285030737e-08 2.3099397699e-08 5.6231289778e-08 -1.1524884291e-07 -2.395358094e-07 -6.4824418688e-08 
1.7400788205e-07 2.4208364566e-07 1.8014976873e-07 2.8953147851e-08 -2.9988421678e-08 1.8484285545e-07 3.0776938324e-07 3.0821399519e-07 3.079826104e-07 
3.0767934627e-07 3.0790832021e-07 3.0817641212e-07 3.0799050193e-07 3.077529251e-07 3.0786601707e-07 3.0825255579e-07 3.0883531917e-07 3.0775303048e-07 
3.03144413e-07 3.0778258859e-07 3.3444067912e-07 3.0822312082e-07 1.5423434987e-07 1.5872775796e-10 -2.6319384051e-08 -1.5232973323e-10 3.707546533e-09 
8.7117695245e-11 3.8132567007e-09 3.4719318519e-10 -2.4849843215e-08 2.8913954259e-10 1.478311335e-07 3.0781154975e-07 3.7026579938e-07 3.0750212758e-07 
9.182877957e-08 -2.5016257244e-10 3.0776938324e-07 1.8474094437e-07 2.8717325255e-08 8.917098253e-08 1.8385138531e-07 1.3050800271e-07 6.1542681913e-08 
1.0935727012e-07 1.5401310067e-07 7.5571506895e-08 5.7495903941e-09 7.6264452756e-08 1.5389789663e-07 1.0543172467e-07 3.5369665376e-08 4.8215447261e-08 
6.9061647785e-08 2.3000844409e-08 -3.8049991672e-08 -6.2173889264e-08 -4.9335017828e-08 5.0245317408e-10 -1.2043987096e-09 -1.4299849593e-07 -2.3977723008e-07 
-1.0643799275e-07 8.0305759108e-08 1.4374056852e-07 1.7791438594e-07 2.7687516182e-07 3.3949797065e-07 2.6465788689e-07 1.7289288624e-07 1.8474094437e-07 
1.8579176462e-10 -3.0673142554e-07 -1.7957156437e-07 3.5125039739e-10 -1.4827710611e-07 -3.0619411402e-07 -1.5413725345e-07 -2.1509263735e-10 -1.525361998e-07 
-3.0713162585e-07 -1.6003242169e-07 -2.1692596301e-10 -1.1666347729e-07 -3.0578468781e-07 -3.6399316964e-07 -3.0618040206e-07 -1.4723786437e-07 -8.5051314069e-10 
1.929669505e-08 -3.9471988763e-10 2.6476761959e-08 -1.8922285345e-10 -1.8049303777e-07 -3.0790597948e-07 -1.758993447e-07 5.6109119675e-10 6.5095528387e-09 
6.1371395454e-12 1.3911094101e-07 3.0673450428e-07 3.8578736674e-07 3.0677072903e-07 1.8579176462e-10 -3.8815945049e-08 -2.2856637781e-07 -1.538004928e-07 
-7.3497792854e-08 -2.4663778079e-07 -3.7888505065e-07 -1.7590419643e-07 4.5185050074e-08 -3.2737042888e-08 -1.4470203708e-07 -2.5741494251e-08 4.5569225634e-08 
-2.0934523738e-07 -5.0244943658e-07 -5.4570792526e-07 -3.8175263006e-07 -5.3215477636e-08 2.1596298996e-07 2.018422307e-07 8.2692728686e-08 3.6784968023e-08 
3.9661147054e-08 6.6863464122e-08 5.5150680216e-08 -5.8718443672e-08 -1.5526182183e-07 -1.1499736853e-07 -1.1652328021e-09 1.2299443635e-07 2.2817410018e-07 
2.8506621996e-07 2.2046985259e-07 -3.8815945049e-08 -1.6091195305e-10 -7.5190165802e-10 2.8585364937e-08 -1.2114766315e-09 -1.7920479083e-07 -3.043046471e-07 
-1.7542111489e-07 2.1572157612e-09 2.3141754805e-08 1.6155371584e-09 5.1661597738e-08 2.1679920174e-09 -3.1797722453e-07 -6.0745787919e-07 -5.6495779925e-07 
-3.0433923773e-07 6.0535552367e-08 3.0549364699e-07 2.0636212206e-07 2.1506236008e-09 -6.8131202375e-08 1.1860993811e-09 2.1577198412e-07 3.0545946774e-07 
8.156614413e-11 -3.0337471701e-07 -2.0792237806e-07 9.2593620749e-10 3.7657579036e-08 2.7474205674e-09 -3.3296690553e-09 1.6322426205e-09 -1.6091195305e-10 
9.7185662812e-09 4.2462803482e-08 1.5549988249e-07 1.8311550493e-07 -4.0404627577e-08 -2.9878532702e-07 -3.757514054e-07 -3.6273225101e-07 -3.5115725218e-07 
-3.3697093873e-07 -3.1611784053e-07 -3.6412046135e-07 -5.5650130495e-07 -6.8733484334e-07 -5.5069554853e-07 -2.9487332681e-07 -6.8158084473e-08 1.575827789e-08 
-1.5681614033e-07 -3.4932058448e-07 -3.2519429993e-07 -1.9080760099e-07 -5.2530801969e-08 -2.0201678927e-08 -2.0365800792e-07 -3.6793975136e-07 -2.7808687166e-07 
-1.6779482242e-07 -2.7075905723e-07 -3.9761655376e-07 -3.5900428966e-07 -2.0615000348e-07 9.7185662812e-09 5.2169314847e-11 4.4572281779e-11 1.9148805432e-07 
3.0028785099e-07 5.2349197845e-08 -3.0063385988e-07 -5.0696727695e-07 -6.0133716422e-07 -6.1842963255e-07 -6.0163120204e-07 -5.943283928e-07 -6.0139045493e-07 
-6.2768663855e-07 -6.0300672443e-07 -4.5714049332e-07 -3.0049954146e-07 -2.4349546508e-07 -2.9895577875e-07 -4.7970799702e-07 -6.004561695e-07 -4.759043458e-07 
-3.0090261277e-07 -2.7030105728e-07 -3.0151263564e-07 -3.1195030418e-07 -3.0181259661e-07 -2.7129804662e-07 -3.0032528211e-07 -4.6881293099e-07 -6.0147704177e-07 
-5.2303366297e-07 -3.0026364311e-07 5.2169314847e-11 -7.3344835958e-10 1.6380055232e-08 1.4224641216e-07 2.0354496646e-07 2.6955062126e-08 -2.0519612902e-07 
-3.1058143516e-07 -3.2401996441e-07 -2.8033082489e-07 -2.4340106056e-07 -2.7711771539e-07 -3.190193803e-07 -3.0664464617e-07 -2.6934779672e-07 -2.3648311562e-07 
-2.1759439046e-07 -2.2222540881e-07 -2.6578635968e-07 -3.6368743204e-07 -4.1143756221e-07 -3.0454568645e-07 -1.4171485691e-07 -2.1648125699e-08 2.5784564934e-08 
-2.9286727249e-08 -1.1373034317e-07 -1.5441462374e-07 -1.9191955018e-07 -2.6682510367e-07 -3.2644788336e-07 -3.1810448838e-07 -2.1759848721e-07 -7.3344835958e-10 
6.6648787543e-11 1.2879161091e-09 1.858481419e-09 2.621137308e-09 4.4186763672e-09 -3.5347974164e-09 -3.2025180056e-08 -9.772113834e-10 1.6968436877e-07 
2.8985190651e-07 1.6941774795e-07 -7.3757159626e-10 -2.9733516815e-08 -8.5185936743e-10 2.6256290819e-09 -4.1239216573e-09 -5.9233817759e-09 -4.0689517366e-09 
1.4316799804e-10 -5.2826168827e-09 -3.234190069e-08 4.4325096983e-10 1.7455077249e-07 2.9683568801e-07 1.7415302167e-07 3.8025670811e-10 -3.0605123672e-08 
-1.8655808752e-09 3.5364236877e-09 -1.4739897207e-09 -3.9717008383e-09 -3.5827934179e-09 6.6648787543e-11 -6.2310886082e-09 -1.3768503623e-07 -2.1365981587e-07 
-1.6448887208e-07 7.9494350541e-08 2.4292943417e-07 5.0455960973e-08 -9.8735324917e-08 1.9454632064e-07 4.6013524376e-07 2.2786579052e-07 -1.1658604982e-07 
-1.87544288e-07 -7.7037321354e-08 1.2290645277e-07 2.8675062052e-07 2.8895876806e-07 2.53240554e-07 3.0330563694e-07 2.9440131666e-07 8.1774892937e-08 
-1.3602044088e-07 -1.6043149145e-07 -1.1544922208e-07 -1.2506459607e-07 -1.1386026823e-07 -6.4188933515e-09 7.0247488404e-08 -1.087316312e-08 -5.6997613484e-08 
1.2465737175e-07 2.3970760818e-07 -6.2310886082e-09 -3.8388240324e-10 -2.8648849483e-07 -3.9344683979e-07 -2.8625924416e-07 7.0073965179e-08 2.9095764129e-07 
-8.2033627553e-09 -2.8741062317e-07 -6.6657161751e-09 2.9293080143e-07 7.027837285e-08 -2.8842284131e-07 -3.9697268045e-07 -2.8543155651e-07 1.6140118572e-08 
2.9344099446e-07 3.3216972083e-07 2.9083121202e-07 3.279303824e-07 2.9197724606e-07 3.1481817103e-08 -2.8787178678e-07 -5.003994479e-07 -5.7406504733e-07 
-4.7683246611e-07 -2.8619381649e-07 -7.9641210706e-08 2.3255913318e-09 -1.8079317029e-07 -2.8492973087e-07 3.3983674313e-08 2.9061097916e-07 -3.8388240324e-10 
2.4309216353e-08 -3.2359691704e-07 -4.325094142e-07 -3.5829860167e-07 -1.5683480601e-07 -6.7286894549e-09 -8.6590914239e-08 -1.9507949993e-07 -1.308524661e-07 
-3.3790906913e-08 -4.3775916535e-08 -1.3192053607e-07 -2.6933780661e-07 -3.6176849466e-07 -3.1495336669e-07 -1.9613520844e-07 -7.2556805642e-08 9.4525535226e-09 
3.5635808742e-09 -4.8202893004e-08 -1.0382603753e-07 -1.8558130457e-07 -3.1574414599e-07 -4.1648564583e-07 -4.0997688813e-07 -3.296661566e-07 -2.0900173498e-07 
-1.602487825e-07 -2.9567245839e-07 -3.8568145801e-07 -2.0068447673e-07 1.6813932415e-08 2.4309216353e-08 1.5812960649e-09 -2.8140241822e-07 -3.2697134961e-07 
-2.8415087735e-07 -3.0196638071e-07 -2.7886208451e-07 -1.1328221356e-07 -2.523313247e-09 -1.4388192898e-07 -2.7824060361e-07 -1.4648187996e-07 1.5622715955e-09 
-8.3940119304e-08 -2.8318567682e-07 -4.7637102512e-07 -5.6077795058e-07 -4.3368823959e-07 -2.7761058405e-07 -2.7505367587e-07 -2.809980635e-07 -1.5042429543e-07 
-2.384932812e-09 4.4067463183e-08 -6.2345585395e-09 -1.4845844907e-07 -2.8149084176e-07 -3.0421836993e-07 -2.7955278144e-07 -2.7040582415e-07 -2.8454982172e-07 
-3.2975709784e-07 -2.7729195706e-07 1.5812960649e-09 -1.192719702e-07 -1.9934439449e-07 -1.0210441094e-07 -1.1631905241e-08 -1.1200676308e-07 -1.9260462197e-07 
-4.2801119393e-08 8.5932761716e-08 -5.7873961571e-08 -2.5196381246e-07 -2.7407931415e-07 -2.0228914835e-07 -1.146619968e-07 -7.6711331948e-08 -1.5395062626e-07 
-2.5613096583e-07 -2.9300343678e-07 -2.6244869744e-07 -1.6234740616e-07 -4.9402503013e-08 1.9683071939e-08 8.362981267e-08 1.8115821315e-07 1.9671229894e-07 
1.4736095579e-08 -1.9787283606e-07 -2.742169351e-07 -2.301263418e-07 -8.1431196407e-08 -4.9926100407e-09 -1.7767169382e-07 -3.1169072234e-07 -1.192719702e-07 
-2.6901702713e-07 -4.5173711509e-09 1.9962755072e-07 2.6728905598e-07 1.2233846212e-07 -2.8454519707e-09 1.2411609262e-07 2.6686335754e-07 1.8903660447e-07 
-5.4703772951e-09 -2.1276379845e-07 -2.7315551296e-07 -2.6957374803e-08 2.6456052973e-07 3.4012811436e-07 2.6303895862e-07 9.658664202e-08 -5.6602722084e-09 
1.0986677915e-07 2.6706975087e-07 2.8985059771e-07 2.6682164814e-07 2.8659523062e-07 2.7041957227e-07 1.3954290019e-07 -4.4907193124e-09 -6.0137219921e-08 
-5.0748722797e-09 1.8301805297e-07 2.6740930226e-07 1.136662203e-08 -2.7185911275e-07 -2.6901702713e-07 -3.1738270214e-07 2.5853002578e-07 4.2436445286e-07 
3.2551088407e-07 1.0735962439e-07 1.3384686051e-08 2.8706008132e-07 5.6479414159e-07 4.8299519829e-07 2.630128595e-07 1.2619673331e-07 1.3887654247e-07 
3.6738200977e-07 5.7562638461e-07 5.2752291643e-07 3.8327223126e-07 3.0307495515e-07 2.6390610382e-07 2.4274069297e-07 2.887731035e-07 4.5119771625e-07 
5.6499033794e-07 4.6512677524e-07 3.1078528753e-07 2.6114413415e-07 2.5840465853e-07 2.4476820406e-07 2.6115244839e-07 3.4847506917e-07 3.2494525911e-07 
8.772210904e-09 -3.04013851e-07 -3.1738270214e-07 0 0 1.255615695e-10 2.5849394142e-26 -7.5336941698e-10 2.0679515314e-25 
4.3946549324e-09 1.6543612251e-24 -2.5614560177e-08 1.3234889801e-23 1.4929270613e-07 2.623542409e-07 1.7927528697e-07 -6.6174449004e-24 -1.7552746438e-07 
-2.623542409e-07 -1.7552746427e-07 -6.6174449004e-24 1.7927528642e-07 2.623542409e-07 1.4929270933e-07 -1.6130021945e-23 -2.5614578845e-08 -2.5849394142e-26 
4.394763738e-09 4.8467614017e-25 -7.540035825e-10 8.8857292364e-27 1.29257757e-10 1.0097419587e-27 -2.15429595e-11 -8.0779356695e-28 0 

displacement 3 1089 double
0 0 0 0 0 0 0 0 0 
0 0 0 0 0 0 0 0 0 
0 0 0 0 0 0 0 0 0 
0 0 0 0 0 0 0 0 0 
0 0 0 0 0 0 0 0 0 
0 0 0 0 0 0 0 0 0 
0 0 0 0 0 0 0 0 0 
0 0 0 0 0 0 0 0 0 
0 0 0 0 0 0 0 0 0 
0 0 0 0 0 0 0 0 0 
0 0 0 0 0 0 0 0 0 
0 0 0 0 0 0 0 0 0 
0 0 0 0 0 0 0 0 0 
0 0 0 0 0 0 0 0 0 
0 0 0 0 0 0 0 0 0 
0 0 0 0 0 0 0 0 0 
0 0 0 0 0 0 0 0 0 
0 0 0 0 0 0 0 0 0 
0 0 0 0 0 0 0 0 0 
0 0 0 0 0 0 0 0 0 
0 0 0 0 0 0 0 0 0 
0 0 0 0 0 0 0 0 0 
0 0 0 0 0 0 0 0 0 
0 0 0 0 0 0 0 0 0 
0 0 0 0 0 0 0 0 0 
0 0 0 0 0 0 0 0 0 
0 0 0 0 0 0 0 0 0 
0 0 0 0 0 0 0 0 0 
0 0 0 0 0 0 0 0 0 
0 0 0 0 0 0 0 0 0 
0 0 0 0 0 0 0 0 0 
0 0 0 0 0 0 0 0 0 
0 0 0 0 0 0 0 0 0 
0 0 0 0 0 0 0 0 0 
0 0 0 0 0 0 0 0 0 
0 0 0 0 0 0 0 0 0 
0 0 0 0 0 0 0 0 0 
0 0 0 0 0 0 0 0 0 
0 0 0 0 0 0 0 0 0 
0 0 0 0 0 0 0 0 0 
0 0 0 0 0 0 0 0 0 
0 0 0 0 0 0 0 0 0 
0 0 0 0 0 0 0 0 0 
0 0 0 0 0 0 0 0 0 
0 0 0 0 0 0 0 0 0 
0 0 0 0 0 0 0 0 0 
0 0 0 0 0 0 0 0 0 
0 0 0 0 0 0 0 0 0 
0 0 0 0 0 0 0 0 0 
0 0 0 0 0 0 0 0 0 
0 0 0 0 0 0 0 0 0 
0 0 0 0 0 0 0 0 0 
0 0 0 0 0 0 0 0 0 
0 0 0 0 0 0 0 0 0 
0 0 0 0 0 0 0 0 0 
0 0 0 0 0 0 0 0 0 
0 0 0 0 0 0 0 0 0 
0 0 0 0 0 0 0 0 0 
0 0 0 0 0 0 0 0 0 
0 0 0 0 0 0 0 0 0 
0 0 0 0 0 0 0 0 0 
0 0 0 0 0 0 0 0 0 
0 0 0 0 0 0 0 0 0 
0 0 0 0 0 0 0 0 0 
0 0 0 0 0 0 0 0 0 
0 0 0 0 0 0 0 0 0 
0 0 0 0 0 0 0 0 0 
0 0 0 0 0 0 0 0 0 
0 0 0 0 0 0 0 0 0 
0 0 0 0 0 0 0 0 0 
0 0 0 0 0 0 0 0 0 
0 0 0 0 0 0 0 0 0 
0 0 0 0 0 0 0 0 0 
0 0 0 0 0 0 0 0 0 
0 0 0 0 0 0 0 0 0 
0 0 0 0 0 0 0 0 0 
0 0 0 0 0 0 0 0 0 
0 0 0 0 0 0 0 0 0 
0 0 0 0 0 0 0 0 0 
0 0 0 0 0 0 0 0 0 
0 0 0 0 0 0 0 0 0 
0 0 0 0 0 0 0 0 0 
0 0 0 0 0 0 0 0 0 
0 0 0 0 0 0 0 0 0 
0 0 0 0 0 0 0 0 0 
0 0 0 0 0 0 0 0 0 
0 0 0 0 0 0 0 0 0 
0 0 0 0 0 0 0 0 0 
0 0 0 0 0 0 0 0 0 
0 0 0 0 0 0 0 0 0 
0 0 0 0 0 0 0 0 0 
0 0 0 0 0 0 0 0 0 
0 0 0 0 0 0 0 0 0 
0 0 0 0 0 0 0 0 0 
0 0 0 0 0 0 0 0 0 
0 0 0 0 0 0 0 0 0 
0 0 0 0 0 0 0 0 0 
0 0 0 0 0 0 0 0 0 
0 0 0 0 0 0 0 0 0 
0 0 0 0 0 0 0 0 0 
0 0 0 0 0 0 0 0 0 
0 0 0 0 0 0 0 0 0 
0 0 0 0 0 0 0 0 0 
0 0 0 0 0 0 0 0 0 
0 0 0 0 0 0 0 0 0 
0 0 0 0 0 0 0 0 0 
0 0 0 0 0 0 0 0 0 
0 0 0 0 0 0 0 0 0 
0 0 0 0 0 0 0 0 0 
0 0 0 0 0 0 0 0 0 
0 0 0 0 0 0 0 0 0 
0 0 0 0 0 0 0 0 0 
0 0 0 0 0 0 0 0 0 
0 0 0 0 0 0 0 0 0 
0 0 0 0 0 0 0 0 0 
0 0 0 0 0 0 0 0 0 
0 0 0 0 0 0 0 0 0 
0 0 0 0 0 0 0 0 0 
0 0 0 0 0 0 0 0 0 
0 0 0 0 0 0 0 0 0 
0 0 0 0 0 0 0 0 0 
0 0 0 0 0 0 0 0 0 
0 0 0 0 0 0 0 0 0 
0 0 0 0 0 0 0 0 0 
0 0 0 0 0 0 0 0 0 
0 0 0 0 0 0 0 0 0 
0 0 0 0 0 0 0 0 0 
0 0 0 0 0 0 0 0 0 
0 0 0 0 0 0 0 0 0 
0 0 0 0 0 0 0 0 0 
0 0 0 0 0 0 0 0 0 
0 0 0 0 0 0 0 0 0 
0 0 0 0 0 0 0 0 0 
0 0 0 0 0 0 0 0 0 
0 0 0 0 0 0 0 0 0 
0 0 0 0 0 0 0 0 0 
0 0 0 0 0 0 0 0 0 
0 0 0 0 0 0 0 0 0 
0 0 0 0 0 0 0 0 0 
0 0 0 0 0 0 0 0 0 
0 0 0 0 0 0 0 0 0 
0 0 0 0 0 0 0 0 0 
0 0 0 0 0 0 0 0 0 
0 0 0 0 0 0 0 0 0 
0 0 0 0 0 0 0 0 0 
0 0 0 0 0 0 0 0 0 
0 0 0 0 0 0 0 0 0 
0 0 0 0 0 0 0 0 0 
0 0 0 0 0 0 0 0 0 
0 0 0 0 0 0 0 0 0 
0 0 0 0 0 0 0 0 0 
0 0 0 0 0 0 0 0 0 
0 0 0 0 0 0 0 0 0 
0 0 0 0 0 0 0 0 0 
0 0 0 0 0 0 0 0 0 
0 0 0 0 0 0 0 0 0 
0 0 0 0 0 0 0 0 0 
0 0 0 0 0 0 0 0 0 
0 0 0 0 0 0 0 0 0 
0 0 0 0 0 0 0 0 0 
0 0 0 0 0 0 0 0 0 
0 0 0 0 0 0 0 0 0 
0 0 0 0 0 0 0 0 0 
0 0 0 0 0 0 0 0 0 
0 0 0 0 0 0 0 0 0 
0 0 0 0 0 0 0 0 0 
0 0 0 0 0 0 0 0 0 
0 0 0 0 0 0 0 0 0 
0 0 0 0 0 0 0 0 0 
0 0 0 0 0 0 0 0 0 
0 0 0 0 0 0 0 0 0 
0 0 0 0 0 0 0 0 0 
0 0 0 0 0 0 0 0 0 
0 0 0 0 0 0 0 0 0 
0 0 0 0 0 0 0 0 0 
0 0 0 0 0 0 0 0 0 
0 0 0 0 0 0 0 0 0 
0 0 0 0 0 0 0 0 0 
0 0 0 0 0 0 0 0 0 
0 0 0 0 0 0 0 0 0 
0 0 0 0 0 0 0 0 0 
0 0 0 0 0 0 0 0 0 
0 0 0 0 0 0 0 0 0 
0 0 0 0 0 0 0 0 0 
0 0 0 0 0 0 0 0 0 
0 0 0 0 0 0 0 0 0 
0 0 0 0 0 0 0 0 0 
0 0 0 0 0 0 0 0 0 
0 0 0 0 0 0 0 0 0 
0 0 0 0 0 0 0 0 0 
0 0 0 0 0 0 0 0 0 
0 0 0 0 0 0 0 0 0 
0 0 0 0 0 0 0 0 0 
0 0 0 0 0 0 0 0 0 
0 0 0 0 0 0 0 0 0 
0 0 0 0 0 0 0 0 0 
0 0 0 0 0 0 0 0 0 
0 0 0 0 0 0 0 0 0 
0 0 0 0 0 0 0 0 0 
0 0 0 0 0 0 0 0 0 
0 0 0 0 0 0 0 0 0 
0 0 0 0 0 0 0 0 0 
0 0 0 0 0 0 0 0 0 
0 0 0 0 0 0 0 0 0 
0 0 0 0 0 0 0 0 0 
0 0 0 0 0 0 0 0 0 
0 0 0 0 0 0 0 0 0 
0 0 0 0 0 0 0 0 0 
0 0 0 0 0 0 0 0 0 
0 0 0 0 0 0 0 0 0 
0 0 0 0 0 0 0 0 0 
0 0 0 0 0 0 0 0 0 
0 0 0 0 0 0 0 0 0 
0 0 0 0 0 0 0 0 0 
0 0 0 0 0 0 0 0 0 
0 0 0 0 0 0 0 0 0 
0 0 0 0 0 0 0 0 0 
0 0 0 0 0 0 0 0 0 
0 0 0 0 0 0 0 0 0 
0 0 0 0 0 0 0 0 0 
0 0 0 0 0 0 0 0 0 
0 0 0 0 0 0 0 0 0 
0 0 0 0 0 0 0 0 0 
0 0 0 0 0 0 0 0 0 
0 0 0 0 0 0 0 0 0 
0 0 0 0 0 0 0 0 0 
0 0 0 0 0 0 0 0 0 
0 0 0 0 0 0 0 0 0 
0 0 0 0 0 0 0 0 0 
0 0 0 0 0 0 0 0 0 
0 0 0 0 0 0 0 0 0 
0 0 0 0 0 0 0 0 0 
0 0 0 0 0 0 0 0 0 
0 0 0 0 0 0 0 0 0 
0 0 0 0 0 0 0 0 0 
0 0 0 0 0 0 0 0 0 
0 0 0 0 0 0 0 0 0 
0 0 0 0 0 0 0 0 0 
0 0 0 0 0 0 0 0 0 
0 0 0 0 0 0 0 0 0 
0 0 0 0 0 0 0 0 0 
0 0 0 0 0 0 0 0 0 
0 0 0 0 0 0 0 0 0 
0 0 0 0 0 0 0 0 0 
0 0 0 0 0 0 0 0 0 
0 0 0 0 0 0 0 0 0 
0 0 0 0 0 0 0 0 0 
0 0 0 0 0 0 0 0 0 
0 0 0 0 0 0 0 0 0 
0 0 0 0 0 0 0 0 0 
0 0 0 0 0 0 0 0 0 
0 0 0 0 0 0 0 0 0 
0 0 0 0 0 0 0 0 0 
0 0 0 0 0 0 0 0 0 
0 0 0 0 0 0 0 0 0 
0 0 0 0 0 0 0 0 0 
0 0 0 0 0 0 0 0 0 
0 0 0 0 0 0 0 0 0 
0 0 0 0 0 0 0 0 0 
0 0 0 0 0 0 0 0 0 
0 0 0 0 0 0 0 0 0 
0 0 0 0 0 0 0 0 0 
0 0 0 0 0 0 0 0 0 
0 0 0 0 0 0 0 0 0 
0 0 0 0 0 0 0 0 0 
0 0 0 0 0 0 0 0 0 
0 0 0 0 0 0 0 0 0 
0 0 0 0 0 0 0 0 0 
0 0 0 0 0 0 0 0 0 
0 0 0 0 0 0 0 0 0 
0 0 0 0 0 0 0 0 0 
0 0 0 0 0 0 0 0 0 
0 0 0 0 0 0 0 0 0 
0 0 0 0 0 0 0 0 0 
0 0 0 0 0 0 0 0 0 
0 0 0 0 0 0 0 0 0 
0 0 0 0 0 0 0 0 0 
0 0 0 0 0 0 0 0 0 
0 0 0 0 0 0 0 0 0 
0 0 0 0 0 0 0 0 0 
0 0 0 0 0 0 0 0 0 
0 0 0 0 0 0 0 0 0 
0 0 0 0 0 0 0 0 0 
0 0 0 0 0 0 0 0 0 
0 0 0 0 0 0 0 0 0 
0 0 0 0 0 0 0 0 0 
0 0 0 0 0 0 0 0 0 
0 0 0 0 0 0 0 0 0 
0 0 0 0 0 0 0 0 0 
0 0 0 0 0 0 0 0 0 
0 0 0 0 0 0 0 0 0 
0 0 0 0 0 0 0 0 0 
0 0 0 0 0 0 0 0 0 
0 0 0 0 0 0 0 0 0 
0 0 0 0 0 0 0 0 0 
0 0 0 0 0 0 0 0 0 
0 0 0 0 0 0 0 0 0 
0 0 0 0 0 0 0 0 0 
0 0 0 0 0 0 0 0 0 
0 0 0 0 0 0 0 0 0 
0 0 0 0 0 0 0 0 0 
0 0 0 0 0 0 0 0 0 
0 0 0 0 0 0 0 0 0 
0 0 0 0 0 0 0 0 0 
0 0 0 0 0 0 0 0 0 
0 0 0 0 0 0 0 0 0 
0 0 0 0 0 0 0 0 0 
0 0 0 0 0 0 0 0 0 
0 0 0 0 0 0 0 0 0 
0 0 0 0 0 0 0 0 0 
0 0 0 0 0 0 0 0 0 
0 0 0 0 0 0 0 0 0 
0 0 0 0 0 0 0 0 0 
0 0 0 0 0 0 0 0 0 
0 0 0 0 0 0 0 0 0 
0 0 0 0 0 0 0 0 0 
0 0 0 0 0 0 0 0 0 
0 0 0 0 0 0 0 0 0 
0 0 0 0 0 0 0 0 0 
0 0 0 0 0 0 0 0 0 
0 0 0 0 0 0 0 0 0 
0 0 0 0 0 0 0 0 0 
0 0 0 0 0 0 0 0 0 
0 0 0 0 0 0 0 0 0 
0 0 0 0 0 0 0 0 0 
0 0 0 0 0 0 0 0 0 
0 0 0 0 0 0 0 0 0 
0 0 0 0 0 0 0 0 0 
0 0 0 0 0 0 0 0 0 
0 0 0 0 0 0 0 0 0 
0 0 0 0 0 0 0 0 0 
0 0 0 0 0 0 0 0 0 
0 0 0 0 0 0 0 0 0 
0 0 0 0 0 0 0 0 0 
0 0 0 0 0 0 0 0 0 
0 0 0 0 0 0 0 0 0 
0 0 0 0 0 0 0 0 0 
0 0 0 0 0 0 0 0 0 
0 0 0 0 0 0 0 0 0 
0 0 0 0 0 0 0 0 0 
0 0 0 0 0 0 0 0 0 
0 0 0 0 0 0 0 0 0 
0 0 0 0 0 0 0 0 0 
0 0 0 0 0 0 0 0 0 
0 0 0 0 0 0 0 0 0 
0 0 0 0 0 0 0 0 0 
0 0 0 0 0 0 0 0 0 
0 0 0 0 0 0 0 0 0 
0 0 0 0 0 0 0 0 0 
0 0 0 0 0 0 0 0 0 
0 0 0 0 0 0 0 0 0 
0 0 0 0 0 0 0 0 0 
0 0 0 0 0 0 0 0 0 
0 0 0 0 0 0 0 0 0 
0 0 0 0 0 0 0 0 0 
0 0 0 0 0 0 0 0 0 
0 0 0 0 0 0 0 0 0 
0 0 0 0 0 0 0 0 0 
0 0 0 0 0 0 0 0 0 
0 0 0 0 0 0 0 0 0 
0 0 0 0 0 0 0 0 0 
0 0 0 0 0 0 0 0 0 
0 0 0 0 0 0 0 0 0 

displacement_x 1 1089 double
0 0 0 0 0 0 0 0 0 
0 0 0 0 0 0 0 0 0 
0 0 0 0 0 0 0 0 0 
0 0 0 0 0 0 0 0 0 
0 0 0 0 0 0 0 0 0 
0 0 0 0 0 0 0 0 0 
0 0 0 0 0 0 0 0 0 
0 0 0 0 0 0 0 0 0 
0 0 0 0 0 0 0 0 0 
0 0 0 0 0 0 0 0 0 
0 0 0 0 0 0 0 0 0 
0 0 0 0 0 0 0 0 0 
0 0 0 0 0 0 0 0 0 
0 0 0 0 0 0 0 0 0 
0 0 0 0 0 0 0 0 0 
0 0 0 0 0 0 0 0 0 
0 0 0 0 0 0 0 0 0 
0 0 0 0 0 0 0 0 0 
0 0 0 0 0 0 0 0 0 
0 0 0 0 0 0 0 0 0 
0 0 0 0 0 0 0 0 0 
0 0 0 0 0 0 0 0 0 
0 0 0 0 0 0 0 0 0 
0 0 0 0 0 0 0 0 0 
0 0 0 0 0 0 0 0 0 
0 0 0 0 0 0 0 0 0 
0 0 0 0 0 0 0 0 0 
0 0 0 0 0 0 0 0 0 
0 0 0 0 0 0 0 0 0 
0 0 0 0 0 0 0 0 0 
0 0 0 0 0 0 0 0 0 
0 0 0 0 0 0 0 0 0 
0 0 0 0 0 0 0 0 0 
0 0 0 0 0 0 0 0 0 
0 0 0 0 0 0 0 0 0 
0 0 0 0 0 0 0 0 0 
0 0 0 0 0 0 0 0 0 
0 0 0 0 0 0 0 0 0 
0 0 0 0 0 0 0 0 0 
0 0 0 0 0 0 0 0 0 
0 0 0 0 0 0 0 0 0 
0 0 0 0 0 0 0 0 0 
0 0 0 0 0 0 0 0 0 
0 0 0 0 0 0 0 0 0 
0 0 0 0 0 0 0 0 0 
0 0 0 0 0 0 0 0 0 
0 0 0 0 0 0 0 0 0 
0 0 0 0 0 0 0 0 0 
0 0 0 0 0 0 0 0 0 
0 0 0 0 0 0 0 0 0 
0 0 0 0 0 0 0 0 0 
0 0 0 0 0 0 0 0 0 
0 0 0 0 0 0 0 0 0 
0 0 0 0 0 0 0 0 0 
0 0 0 0 0 0 0 0 0 
0 0 0 0 0 0 0 0 0 
0 0 0 0 0 0 0 0 0 
0 0 0 0 0 0 0 0 0 
0 0 0 0 0 0 0 0 0 
0 0 0 0 0 0 0 0 0 
0 0 0 0 0 0 0 0 0 
0 0 0 0 0 0 0 0 0 
0 0 0 0 0 0 0 0 0 
0 0 0 0 0 0 0 0 0 
0 0 0 0 0 0 0 0 0 
0 0 0 0 0 0 0 0 0 
0 0 0 0 0 0 0 0 0 
0 0 0 0 0 0 0 0 0 
0 0 0 0 0 0 0 0 0 
0 0 0 0 0 0 0 0 0 
0 0 0 0 0 0 0 0 0 
0 0 0 0 0 0 0 0 0 
0 0 0 0 0 0 0 0 0 
0 0 0 0 0 0 0 0 0 
0 0 0 0 0 0 0 0 0 
0 0 0 0 0 0 0 0 0 
0 0 0 0 0 0 0 0 0 
0 0 0 0 0 0 0 0 0 
0 0 0 0 0 0 0 0 0 
0 0 0 0 0 0 0 0 0 
0 0 0 0 0 0 0 0 0 
0 0 0 0 0 0 0 0 0 
0 0 0 0 0 0 0 0 0 
0 0 0 0 0 0 0 0 0 
0 0 0 0 0 0 0 0 0 
0 0 0 0 0 0 0 0 0 
0 0 0 0 0 0 0 0 0 
0 0 0 0 0 0 0 0 0 
0 0 0 0 0 0 0 0 0 
0 0 0 0 0 0 0 0 0 
0 0 0 0 0 0 0 0 0 
0 0 0 0 0 0 0 0 0 
0 0 0 0 0 0 0 0 0 
0 0 0 0 0 0 0 0 0 
0 0 0 0 0 0 0 0 0 
0 0 0 0 0 0 0 0 0 
0 0 0 0 0 0 0 0 0 
0 0 0 0 0 0 0 0 0 
0 0 0 0 0 0 0 0 0 
0 0 0 0 0 0 0 0 0 
0 0 0 0 0 0 0 0 0 
0 0 0 0 0 0 0 0 0 
0 0 0 0 0 0 0 0 0 
0 0 0 0 0 0 0 0 0 
0 0 0 0 0 0 0 0 0 
0 0 0 0 0 0 0 0 0 
0 0 0 0 0 0 0 0 0 
0 0 0 0 0 0 0 0 0 
0 0 0 0 0 0 0 0 0 
0 0 0 0 0 0 0 0 0 
0 0 0 0 0 0 0 0 0 
0 0 0 0 0 0 0 0 0 
0 0 0 0 0 0 0 0 0 
0 0 0 0 0 0 0 0 0 
0 0 0 0 0 0 0 0 0 
0 0 0 0 0 0 0 0 0 
0 0 0 0 0 0 0 0 0 
0 0 0 0 0 0 0 0 0 
0 0 0 0 0 0 0 0 0 
0 0 0 0 0 0 0 0 0 
0 0 0 0 0 0 0 0 0 

displacement_y 1 1089 double
0 0 0 0 0 0 0 0 0 
0 0 0 0 0 0 0 0 0 
0 0 0 0 0 0 0 0 0 
0 0 0 0 0 0 0 0 0 
0 0 0 0 0 0 0 0 0 
0 0 0 0 0 0 0 0 0 
0 0 0 0 0 0 0 0 0 
0 0 0 0 0 0 0 0 0 
0 0 0 0 0 0 0 0 0 
0 0 0 0 0 0 0 0 0 
0 0 0 0 0 0 0 0 0 
0 0 0 0 0 0 0 0 0 
0 0 0 0 0 0 0 0 0 
0 0 0 0 0 0 0 0 0 
0 0 0 0 0 0 0 0 0 
0 0 0 0 0 0 0 0 0 
0 0 0 0 0 0 0 0 0 
0 0 0 0 0 0 0 0 0 
0 0 0 0 0 0 0 0 0 
0 0 0 0 0 0 0 0 0 
0 0 0 0 0 0 0 0 0 
0 0 0 0 0 0 0 0 0 
0 0 0 0 0 0 0 0 0 
0 0 0 0 0 0 0 0 0 
0 0 0 0 0 0 0 0 0 
0 0 0 0 0 0 0 0 0 
0 0 0 0 0 0 0 0 0 
0 0 0 0 0 0 0 0 0 
0 0 0 0 0 0 0 0 0 
0 0 0 0 0 0 0 0 0 
0 0 0 0 0 0 0 0 0 
0 0 0 0 0 0 0 0 0 
0 0 0 0 0 0 0 0 0 
0 0 0 0 0 0 0 0 0 
0 0 0 0 0 0 0 0 0 
0 0 0 0 0 0 0 0 0 
0 0 0 0 0 0 0 0 0 
0 0 0 0 0 0 0 0 0 
0 0 0 0 0 0 0 0 0 
0 0 0 0 0 0 0 0 0 
0 0 0 0 0 0 0 0 0 
0 0 0 0 0 0 0 0 0 
0 0 0 0 0 0 0 0 0 
0 0 0 0 0 0 0 0 0 
0 0 0 0 0 0 0 0 0 
0 0 0 0 0 0 0 0 0 
0 0 0 0 0 0 0 0 0 
0 0 0 0 0 0 0 0 0 
0 0 0 0 0 0 0 0 0 
0 0 0 0 0 0 0 0 0 
0 0 0 0 0 0 0 0 0 
0 0 0 0 0 0 0 0 0 
0 0 0 0 0 0 0 0 0 
0 0 0 0 0 0 0 0 0 
0 0 0 0 0 0 0 0 0 
0 0 0 0 0 0 0 0 0 
0 0 0 0 0 0 0 0 0 
0 0 0 0 0 0 0 0 0 
0 0 0 0 0 0 0 0 0 
0 0 0 0 0 0 0 0 0 
0 0 0 0 0 0 0 0 0 
0 0 0 0 0 0 0 0 0 
0 0 0 0 0 0 0 0 0 
0 0 0 0 0 0 0 0 0 
0 0 0 0 0 0 0 0 0 
0 0 0 0 0 0 0 0 0 
0 0 0 0 0 0 0 0 0 
0 0 0 0 0 0 0 0 0 
0 0 0 0 0 0 0 0 0 
0 0 0 0 0 0 0 0 0 
0 0 0 0 0 0 0 0 0 
0 0 0 0 0 0 0 0 0 
0 0 0 0 0 0 0 0 0 
0 0 0 0 0 0 0 0 0 
0 0 0 0 0 0 0 0 0 
0 0 0 0 0 0 0 0 0 
0 0 0 0 0 0 0 0 0 
0 0 0 0 0 0 0 0 0 
0 0 0 0 0 0 0 0 0 
0 0 0 0 0 0 0 0 0 
0 0 0 0 0 0 0 0 0 
0 0 0 0 0 0 0 0 0 
0 0 0 0 0 0 0 0 0 
0 0 0 0 0 0 0 0 0 
0 0 0 0 0 0 0 0 0 
0 0 0 0 0 0 0 0 0 
0 0 0 0 0 0 0 0 0 
0 0 0 0 0 0 0 0 0 
0 0 0 0 0 0 0 0 0 
0 0 0 0 0 0 0 0 0 
0 0 0 0 0 0 0 0 0 
0 0 0 0 0 0 0 0 0 
0 0 0 0 0 0 0 0 0 
0 0 0 0 0 0 0 0 0 
0 0 0 0 0 0 0 0 0 
0 0 0 0 0 0 0 0 0 
0 0 0 0 0 0 0 0 0 
0 0 0 0 0 0 0 0 0 
0 0 0 0 0 0 0 0 0 
0 0 0 0 0 0 0 0 0 
0 0 0 0 0 0 0 0 0 
0 0 0 0 0 0 0 0 0 
0 0 0 0 0 0 0 0 0 
0 0 0 0 0 0 0 0 0 
0 0 0 0 0 0 0 0 0 
0 0 0 0 0 0 0 0 0 
0 0 0 0 0 0 0 0 0 
0 0 0 0 0 0 0 0 0 
0 0 0 0 0 0 0 0 0 
0 0 0 0 0 0 0 0 0 
0 0 0 0 0 0 0 0 0 
0 0 0 0 0 0 0 0 0 
0 0 0 0 0 0 0 0 0 
0 0 0 0 0 0 0 0 0 
0 0 0 0 0 0 0 0 0 
0 0 0 0 0 0 0 0 0 
0 0 0 0 0 0 0 0 0 
0 0 0 0 0 0 0 0 0 
0 0 0 0 0 0 0 0 0 
0 0 0 0 0 0 0 0 0 
0 0 0 0 0 0 0 0 0 

s_xx 1 1089 double
0 0 1.255615695e-10 2.5849394142e-26 -7.5336941698e-10 2.0679515314e-25 4.3946549324e-09 1.6543612251e-24 -2.5614560177e-08 
1.3234889801e-23 1.4929270613e-07 2.623542409e-07 1.7927528697e-07 -6.6174449004e-24 -1.7552746438e-07 -2.623542409e-07 -1.7552746427e-07 -6.6174449004e-24 
1.7927528642e-07 2.623542409e-07 1.4929270933e-07 -1.6130021945e-23 -2.5614578845e-08 -2.5849394142e-26 4.394763738e-09 4.8467614017e-25 -7.540035825e-10 
8.8857292364e-27 1.29257757e-10 1.0097419587e-27 -2.15429595e-11 -8.0779356695e-28 0 3.1737544988e-07 3.0386730176e-07 3.1704156824e-07 
3.3377247621e-07 3.3093425255e-07 3.2002037878e-07 3.1252433638e-07 2.5119367691e-07 7.877595192e-08 -7.7483922123e-08 -9.0341028756e-08 -4.1177404962e-08 
-1.1375087728e-08 -9.9118876823e-09 -4.5765615457e-08 -3.5035725425e-08 1.0617832804e-07 2.5262208158e-07 2.7904107183e-07 2.7837746186e-07 3.4357341472e-07 
3.0171566507e-07 -2.0109052437e-08 -2.5267479533e-07 -2.6755621116e-08 3.0711184988e-07 3.9839099735e-07 3.1644871947e-07 1.3065191444e-07 -1.4478807225e-10 
8.2913241598e-08 2.3652149155e-07 3.1737544988e-07 2.6901856889e-07 2.7189026767e-07 2.6594030092e-07 2.6553272314e-07 2.8503158889e-07 2.6845628314e-07 
1.5982619091e-07 -2.9577358875e-09 -1.8199454534e-07 -2.6957357957e-07 -1.5798418067e-07 7.2451515062e-10 5.4503371714e-08 2.10716936e-09 -1.5770931157e-07 
-2.7056825248e-07 -1.8209183477e-07 -3.2614006035e-09 1.5494170786e-07 2.6927976154e-07 3.1651503135e-07 2.7234768437e-07 1.1247788765e-07 3.2726070251e-09 
1.1109880833e-07 2.7120050881e-07 3.1882172573e-07 2.6921558261e-07 1.3763520299e-07 3.078051319e-11 -6.7647491163e-08 1.614257116e-10 2.6901856889e-07 
1.1935709709e-07 3.1341091451e-07 1.2302679966e-07 -1.0860631846e-07 -3.8299510846e-08 8.8310971413e-08 2.5588877231e-08 -7.7735040661e-08 -7.293002953e-08 
-2.8932294754e-08 -1.467804171e-08 1.4341629805e-08 1.0263562e-07 1.5184097999e-07 6.3594760913e-08 -5.8190454072e-08 -1.0960208181e-07 -9.4501627854e-08 
-1.6750597745e-08 1.0811677181e-07 2.6456624412e-07 3.386667855e-07 2.164873623e-07 9.5120380827e-08 1.7165824738e-07 2.7532646964e-07 2.3535055527e-07 
1.3023504119e-07 3.848446433e-08 1.699519671e-09 6.1480902207e-08 1.2998222399e-07 1.1935709709e-07 -1.5864112001e-09 2.7718859353e-07 3.1432933898e-08 
-2.7832384374e-07 -1.9155219302e-07 2.7909962566e-10 5.7012477393e-09 1.7256556344e-09 1.6536372762e-07 2.8364299807e-07 1.4359100134e-07 2.1475468288e-11 
1.0774815847e-07 2.8131150497e-07 3.3525196961e-07 2.8451783242e-07 1.4405737341e-07 2.7331323883e-09 -5.0592350851e-08 -2.7757964499e-11 1.7031822939e-07 
2.7567100963e-07 1.3125598115e-07 -2.7703122406e-09 1.3374867327e-07 2.7947702543e-07 1.7307883201e-07 -2.2400490385e-09 -6.3273759774e-08 -1.0212135252e-10 
1.9719504507e-07 2.7967964621e-07 -1.5864112001e-09 -2.4660310448e-08 -2.3908627544e-08 6.0132492556e-08 1.5083570515e-07 1.7157366553e-07 1.397773913e-07 
7.2877900074e-08 4.8726439359e-08 1.4517425668e-07 2.1732679798e-07 1.202895092e-07 2.2381535268e-08 9.1922021089e-08 2.1124494546e-07 2.6268428716e-07 
2.564664291e-07 2.0281775417e-07 1.5427015625e-07 1.6335552924e-07 1.3962270942e-07 -7.3794669295e-09 -1.644652233e-07 -2.1844878321e-07 -1.5682211746e-07 
3.2922803131e-08 1.6955764994e-07 7.1854094331e-08 -6.9524888927e-08 -6.3916325086e-08 -7.0094342238e-09 5.5065635796e-09 -6.8748792903e-09 -2.4660310448e-08 
4.0092899104e-10 -2.9026651212e-07 1.018278537e-07 5.7925614682e-07 5.445904876e-07 2.8916211366e-07 1.0430226263e-07 -1.7065884196e-09 -2.0581962425e-08 
-2.9820598987e-09 4.3491864442e-10 -1.2843704964e-09 9.0672897772e-10 -4.1423810993e-09 -2.7582298893e-08 -4.6847119083e-09 1.2927869235e-07 2.8991406183e-07 
3.9282754448e-07 2.8897193873e-07 -1.7069995699e-07 -5.8018719043e-07 -5.3348880936e-07 -2.8979015707e-07 -1.0827657688e-07 -2.9147449666e-09 1.2328662463e-08 
2.5792281601e-09 3.2962534874e-08 3.4032738661e-10 -1.9842564952e-07 -2.896379357e-07 4.0092899104e-10 7.609306634e-09 -2.1185741975e-07 4.874280477e-08 
3.8437138713e-07 3.8998973426e-07 2.1126474089e-07 -6.1366982592e-09 -1.5458759063e-07 -1.2646094365e-07 -5.7451317565e-08 -8.3253272619e-08 -1.4714158531e-07 
-1.9239103215e-07 -2.3374486707e-07 -2.8594634403e-07 -2.2609617381e-07 6.8704932803e-08 3.5454129788e-07 3.8749724348e-07 1.8973167071e-07 -2.1659651935e-07 
-5.464007232e-07 -5.1459433736e-07 -3.4452358759e-07 -2.5953469967e-07 -1.5929622005e-07 5.6523304784e-08 2.2086768675e-07 1.6668073775e-07 2.7515497195e-08 
-6.3074995506e-08 -7.8555479359e-08 7.609306634e-09 -1.1915517701e-10 2.5217763558e-09 -5.2944461474e-09 -3.9844440751e-09 2.6035161184e-08 -3.1097065541e-09 
-1.7929312347e-07 -2.9605494611e-07 -1.4693503099e-07 9.2468546635e-10 -1.1961773313e-07 -2.9615490882e-07 -3.1627946361e-07 -2.9384992634e-07 -3.4272482584e-07 
-2.9449576982e-07 1.9245634033e-08 2.9292276362e-07 2.2095899684e-07 -2.2469731138e-09 -1.8229645306e-07 -2.9130418538e-07 -3.0138491242e-07 -2.9330441136e-07 
-3.4782845934e-07 -2.9651548011e-07 2.9076102613e-08 2.9355926363e-07 1.6154697776e-07 -1.0482662287e-09 1.7168602043e-07 2.9893425251e-07 -1.1915517701e-10 
-4.6108183076e-09 7.1878860208e-08 3.2178370823e-08 -5.532021106e-08 -1.2222481004e-07 -1.9632530358e-07 -3.0541156917e-07 -3.2127373229e-07 -1.1570191841e-07 
3.8464489103e-08 -1.316138931e-07 -3.2335999648e-07 -2.3419675248e-07 -9.4805016195e-08 -1.3586564274e-07 -1.7614644138e-07 -3.4415221399e-08 1.0269895985e-07 
4.8567045006e-08 -6.8921666511e-08 -1.2187787528e-07 -1.2897277695e-07 -1.0887756719e-07 -1.4154427617e-07 -3.0692493407e-07 -3.9632229935e-07 -2.0103913049e-07 
-6.9017733268e-09 -9.9736573696e-08 -1.4442180679e-07 1.9416425222e-07 4.0958133711e-07 -4.6108183076e-09 9.3493858477e-11 -1.168081111e-09 2.335662464e-08 
8.5939223534e-12 -1.4487119045e-07 -3.0072840408e-07 -3.5700872252e-07 -2.9995835494e-07 -1.1582351046e-07 -8.1015566769e-10 -1.5112425717e-07 -2.9993611487e-07 
-1.8041602869e-07 -5.7474386714e-10 3.1576994357e-08 1.7090971511e-09 -4.5085243197e-09 -7.8168594962e-11 1.9978657853e-09 1.1945527418e-09 -3.0131338049e-09 
1.6119695429e-09 2.7307026183e-08 1.1369353812e-09 -1.498334036e-07 -2.9779223027e-07 -3.1492778417e-07 -3.0190935418e-07 -3.5940622918e-07 -3.0146709757e-07 
5.7859352264e-08 2.9842794213e-07 9.3493858477e-11 1.079577941e-08 -1.4433542307e-07 -1.6031800587e-07 -1.4739680665e-07 -2.1581666305e-07 -3.012498248e-07 
-3.3936854159e-07 -3.1393335992e-07 -2.0870482627e-07 -1.3466626971e-07 -2.0280101932e-07 -3.1335269802e-07 -3.6656492873e-07 -3.1688277645e-07 -1.1875130618e-07 
8.5932465074e-08 1.5527152028e-07 1.5454584022e-07 1.4903540567e-07 1.5595411075e-07 1.9251584958e-07 1.9797327182e-07 1.1157902713e-07 3.2689475987e-08 
6.0660978839e-08 7.6268234767e-08 -3.9714057152e-08 -2.0908706862e-07 -3.5365197135e-07 -3.5546720127e-07 -9.6591194294e-08 1.2486636184e-07 1.079577941e-08 
-1.6928137877e-10 -3.0521946778e-07 -3.573868193e-07 -3.0485101064e-07 -2.9579171648e-07 -3.0428549914e-07 -3.0440892098e-07 -3.0385226925e-07 -3.1030583126e-07 
-3.0529805669e-07 -2.7035739528e-07 -3.0385679018e-07 -5.041691846e-07 -6.0946235986e-07 -3.5790409734e-07 -1.0904597741e-09 2.0938249009e-07 3.0470389158e-07 
3.16062884e-07 3.0501753434e-07 3.3312590956e-07 3.0437291481e-07 1.2274345522e-07 -2.8517307081e-10 1.4676432608e-07 3.0471515861e-07 2.1439053042e-07 
1.2467570165e-09 -2.0925984609e-07 -3.0350703987e-07 -1.678725853e-07 -6.5911994653e-10 -1.6928137877e-10 -3.9117160034e-08 -4.1311501606e-07 -3.7180877277e-07 
-2.2824561938e-07 -2.9547274508e-07 -3.7819591714e-07 -2.8112090283e-07 -1.9485713017e-07 -3.1001402716e-07 -4.172830245e-07 -3.0735555288e-07 -1.9502349917e-07 
-2.9507875023e-07 -4.2155564941e-07 -3.8848854007e-07 -2.4106808362e-07 -2.4484941498e-08 1.8753975378e-07 3.2128486968e-07 3.6266879527e-07 2.9760991963e-07 
1.7811566693e-07 5.6193461334e-08 -2.232488541e-08 -1.1607561552e-08 3.0379841884e-08 4.5671733876e-08 1.0381083348e-08 -9.9379140774e-08 -1.7371961847e-07 
-1.0275102972e-07 -1.5031001311e-08 -3.9117160034e-08 1.8722924178e-10 -3.060307378e-07 -1.7878554149e-07 9.0972081971e-10 -1.4795804823e-07 -3.0619740275e-07 
-1.5461689686e-07 7.5042488e-10 -1.4612848208e-07 -3.0601082458e-07 -1.8965380949e-07 7.5121889779e-10 6.3012916276e-08 1.6522801571e-09 -1.7880969195e-07 
-3.0667175881e-07 -2.1023267921e-07 -7.1486998007e-10 2.1065925206e-07 3.0627220198e-07 1.6850649488e-07 -6.6993733003e-10 7.1083727209e-10 1.0674178177e-10 
-1.7502430071e-07 -3.0778780023e-07 -1.8128926682e-07 -4.8964918706e-11 3.1412841023e-08 6.4940551834e-10 -4.786016921e-09 7.1586666179e-11 1.8722924178e-10 
1.8484285545e-07 7.8393135022e-08 1.4670800339e-07 2.2344458645e-07 1.4226001007e-07 6.130952506e-08 1.387483822e-07 2.2246422671e-07 1.6034470379e-07 
8.5209680247e-08 1.2987902289e-07 2.2253529025e-07 2.9136104086e-07 2.9055970096e-07 1.7433469682e-07 3.422652339e-08 -3.822432435e-08 -2.8433462798e-08 
7.818349165e-08 1.5126199241e-07 6.043749289e-08 -3.5285030737e-08 2.3099397699e-08 5.6231289778e-08 -1.1524884291e-07 -2.395358094e-07 -6.4824418688e-08 
1.7400788205e-07 2.4208364566e-07 1.8014976873e-07 2.8953147851e-08 -2.9988421678e-08 1.8484285545e-07 3.0776938324e-07 3.0821399519e-07 3.079826104e-07 
3.0767934627e-07 3.0790832021e-07 3.0817641212e-07 3.0799050193e-07 3.077529251e-07 3.0786601707e-07 3.0825255579e-07 3.0883531917e-07 3.0775303048e-07 
3.03144413e-07 3.0778258859e-07 3.3444067912e-07 3.0822312082e-07 1.5423434987e-07 1.5872775796e-10 -2.6319384051e-08 -1.5232973323e-10 3.707546533e-09 
8.7117695245e-11 3.8132567007e-09 3.4719318519e-10 -2.4849843215e-08 2.8913954259e-10 1.478311335e-07 3.0781154975e-07 3.7026579938e-07 3.0750212758e-07 
9.182877957e-08 -2.5016257244e-10 3.0776938324e-07 1.8474094437e-07 2.8717325255e-08 8.917098253e-08 1.8385138531e-07 1.3050800271e-07 6.1542681913e-08 
1.0935727012e-07 1.5401310067e-07 7.5571506895e-08 5.7495903941e-09 7.6264452756e-08 1.5389789663e-07 1.0543172467e-07 3.5369665376e-08 4.8215447261e-08 
6.9061647785e-08 2.3000844409e-08 -3.8049991672e-08 -6.2173889264e-08 -4.9335017828e-08 5.0245317408e-10 -1.2043987096e-09 -1.4299849593e-07 -2.3977723008e-07 
-1.0643799275e-07 8.0305759108e-08 1.4374056852e-07 1.7791438594e-07 2.7687516182e-07 3.3949797065e-07 2.6465788689e-07 1.7289288624e-07 1.8474094437e-07 
1.8579176462e-10 -3.0673142554e-07 -1.7957156437e-07 3.5125039739e-10 -1.4827710611e-07 -3.0619411402e-07 -1.5413725345e-07 -2.1509263735e-10 -1.525361998e-07 
-3.0713162585e-07 -1.6003242169e-07 -2.1692596301e-10 -1.1666347729e-07 -3.0578468781e-07 -3.6399316964e-07 -3.0618040206e-07 -1.4723786437e-07 -8.5051314069e-10 
1.929669505e-08 -3.9471988763e-10 2.6476761959e-08 -1.8922285345e-10 -1.8049303777e-07 -3.0790597948e-07 -1.758993447e-07 5.6109119675e-10 6.5095528387e-09 
6.1371395454e-12 1.3911094101e-07 3.0673450428e-07 3.8578736674e-07 3.0677072903e-07 1.8579176462e-10 -3.8815945049e-08 -2.2856637781e-07 -1.538004928e-07 
-7.3497792854e-08 -2.4663778079e-07 -3.7888505065e-07 -1.7590419643e-07 4.5185050074e-08 -3.2737042888e-08 -1.4470203708e-07 -2.5741494251e-08 4.5569225634e-08 
-2.0934523738e-07 -5.0244943658e-07 -5.4570792526e-07 -3.8175263006e-07 -5.3215477636e-08 2.1596298996e-07 2.018422307e-07 8.2692728686e-08 3.6784968023e-08 
3.9661147054e-08 6.6863464122e-08 5.5150680216e-08 -5.8718443672e-08 -1.5526182183e-07 -1.1499736853e-07 -1.1652328021e-09 1.2299443635e-07 2.2817410018e-07 
2.8506621996e-07 2.2046985259e-07 -3.8815945049e-08 -1.6091195305e-10 -7.5190165802e-10 2.8585364937e-08 -1.2114766315e-09 -1.7920479083e-07 -3.043046471e-07 
-1.7542111489e-07 2.1572157612e-09 2.3141754805e-08 1.6155371584e-09 5.1661597738e-08 2.1679920174e-09 -3.1797722453e-07 -6.0745787919e-07 -5.6495779925e-07 
-3.0433923773e-07 6.0535552367e-08 3.0549364699e-07 2.0636212206e-07 2.1506236008e-09 -6.8131202375e-08 1.1860993811e-09 2.1577198412e-07 3.0545946774e-07 
8.156614413e-11 -3.0337471701e-07 -2.0792237806e-07 9.2593620749e-10 3.7657579036e-08 2.7474205674e-09 -3.3296690553e-09 1.6322426205e-09 -1.6091195305e-10 
9.7185662812e-09 4.2462803482e-08 1.5549988249e-07 1.8311550493e-07 -4.0404627577e-08 -2.9878532702e-07 -3.757514054e-07 -3.6273225101e-07 -3.5115725218e-07 
-3.3697093873e-07 -3.1611784053e-07 -3.6412046135e-07 -5.5650130495e-07 -6.8733484334e-07 -5.5069554853e-07 -2.9487332681e-07 -6.8158084473e-08 1.575827789e-08 
-1.5681614033e-07 -3.4932058448e-07 -3.2519429993e-07 -1.9080760099e-07 -5.2530801969e-08 -2.0201678927e-08 -2.0365800792e-07 -3.6793975136e-07 -2.7808687166e-07 
-1.6779482242e-07 -2.7075905723e-07 -3.9761655376e-07 -3.5900428966e-07 -2.0615000348e-07 9.7185662812e-09 5.2169314847e-11 4.4572281779e-11 1.9148805432e-07 
3.0028785099e-07 5.2349197845e-08 -3.0063385988e-07 -5.0696727695e-07 -6.0133716422e-07 -6.1842963255e-07 -6.0163120204e-07 -5.943283928e-07 -6.0139045493e-07 
-6.2768663855e-07 -6.0300672443e-07 -4.5714049332e-07 -3.0049954146e-07 -2.4349546508e-07 -2.9895577875e-07 -4.7970799702e-07 -6.004561695e-07 -4.759043458e-07 
-3.0090261277e-07 -2.7030105728e-07 -3.0151263564e-07 -3.1195030418e-07 -3.0181259661e-07 -2.7129804662e-07 -3.0032528211e-07 -4.6881293099e-07 -6.0147704177e-07 
-5.2303366297e-07 -3.0026364311e-07 5.2169314847e-11 -7.3344835958e-10 1.6380055232e-08 1.4224641216e-07 2.0354496646e-07 2.6955062126e-08 -2.0519612902e-07 
-3.1058143516e-07 -3.2401996441e-07 -2.8033082489e-07 -2.4340106056e-07 -2.7711771539e-07 -3.190193803e-07 -3.0664464617e-07 -2.6934779672e-07 -2.3648311562e-07 
-2.1759439046e-07 -2.2222540881e-07 -2.6578635968e-07 -3.6368743204e-07 -4.1143756221e-07 -3.0454568645e-07 -1.4171485691e-07 -2.1648125699e-08 2.5784564934e-08 
-2.9286727249e-08 -1.1373034317e-07 -1.5441462374e-07 -1.9191955018e-07 -2.6682510367e-07 -3.2644788336e-07 -3.1810448838e-07 -2.1759848721e-07 -7.3344835958e-10 
6.6648787543e-11 1.2879161091e-09 1.858481419e-09 2.621137308e-09 4.4186763672e-09 -3.5347974164e-09 -3.2025180056e-08 -9.772113834e-10 1.6968436877e-07 
2.8985190651e-07 1.6941774795e-07 -7.3757159626e-10 -2.9733516815e-08 -8.5185936743e-10 2.6256290819e-09 -4.1239216573e-09 -5.9233817759e-09 -4.0689517366e-09 
1.4316799804e-10 -5.2826168827e-09 -3.234190069e-08 4.4325096983e-10 1.7455077249e-07 2.9683568801e-07 1.7415302167e-07 3.8025670811e-10 -3.0605123672e-08 
-1.8655808752e-09 3.5364236877e-09 -1.4739897207e-09 -3.9717008383e-09 -3.5827934179e-09 6.6648787543e-11 -6.2310886082e-09 -1.3768503623e-07 -2.1365981587e-07 
-1.6448887208e-07 7.9494350541e-08 2.4292943417e-07 5.0455960973e-08 -9.8735324917e-08 1.9454632064e-07 4.6013524376e-07 2.2786579052e-07 -1.1658604982e-07 
-1.87544288e-07 -7.7037321354e-08 1.2290645277e-07 2.8675062052e-07 2.8895876806e-07 2.53240554e-07 3.0330563694e-07 2.9440131666e-07 8.1774892937e-08 
-1.3602044088e-07 -1.6043149145e-07 -1.1544922208e-07 -1.2506459607e-07 -1.1386026823e-07 -6.4188933515e-09 7.0247488404e-08 -1.087316312e-08 -5.6997613484e-08 
1.2465737175e-07 2.3970760818e-07 -6.2310886082e-09 -3.8388240324e-10 -2.8648849483e-07 -3.9344683979e-07 -2.8625924416e-07 7.0073965179e-08 2.9095764129e-07 
-8.2033627553e-09 -2.8741062317e-07 -6.6657161751e-09 2.9293080143e-07 7.027837285e-08 -2.8842284131e-07 -3.9697268045e-07 -2.8543155651e-07 1.6140118572e-08 
2.9344099446e-07 3.3216972083e-07 2.9083121202e-07 3.279303824e-07 2.9197724606e-07 3.1481817103e-08 -2.8787178678e-07 -5.003994479e-07 -5.7406504733e-07 
-4.7683246611e-07 -2.8619381649e-07 -7.9641210706e-08 2.3255913318e-09 -1.8079317029e-07 -2.8492973087e-07 3.3983674313e-08 2.9061097916e-07 -3.8388240324e-10 
2.4309216353e-08 -3.2359691704e-07 -4.325094142e-07 -3.5829860167e-07 -1.5683480601e-07 -6.7286894549e-09 -8.6590914239e-08 -1.9507949993e-07 -1.308524661e-07 
-3.3790906913e-08 -4.3775916535e-08 -1.3192053607e-07 -2.6933780661e-07 -3.6176849466e-07 -3.1495336669e-07 -1.9613520844e-07 -7.2556805642e-08 9.4525535226e-09 
3.5635808742e-09 -4.8202893004e-08 -1.0382603753e-07 -1.8558130457e-07 -3.1574414599e-07 -4.1648564583e-07 -4.0997688813e-07 -3.296661566e-07 -2.0900173498e-07 
-1.602487825e-07 -2.9567245839e-07 -3.8568145801e-07 -2.0068447673e-07 1.6813932415e-08 2.4309216353e-08 1.5812960649e-09 -2.8140241822e-07 -3.2697134961e-07 
-2.8415087735e-07 -3.0196638071e-07 -2.7886208451e-07 -1.1328221356e-07 -2.523313247e-09 -1.4388192898e-07 -2.7824060361e-07 -1.4648187996e-07 1.5622715955e-09 
-8.3940119304e-08 -2.8318567682e-07 -4.7637102512e-07 -5.6077795058e-07 -4.3368823959e-07 -2.7761058405e-07 -2.7505367587e-07 -2.809980635e-07 -1.5042429543e-07 
-2.384932812e-09 4.4067463183e-08 -6.2345585395e-09 -1.4845844907e-07 -2.8149084176e-07 -3.0421836993e-07 -2.7955278144e-07 -2.7040582415e-07 -2.8454982172e-07 
-3.2975709784e-07 -2.7729195706e-07 1.5812960649e-09 -1.192719702e-07 -1.9934439449e-07 -1.0210441094e-07 -1.1631905241e-08 -1.1200676308e-07 -1.9260462197e-07 
-4.2801119393e-08 8.5932761716e-08 -5.7873961571e-08 -2.5196381246e-07 -2.7407931415e-07 -2.0228914835e-07 -1.146619968e-07 -7.6711331948e-08 -1.5395062626e-07 
-2.5613096583e-07 -2.9300343678e-07 -2.6244869744e-07 -1.6234740616e-07 -4.9402503013e-08 1.9683071939e-08 8.362981267e-08 1.8115821315e-07 1.9671229894e-07 
1.4736095579e-08 -1.9787283606e-07 -2.742169351e-07 -2.301263418e-07 -8.1431196407e-08 -4.9926100407e-09 -1.7767169382e-07 -3.1169072234e-07 -1.192719702e-07 
-2.6901702713e-07 -4.5173711509e-09 1.9962755072e-07 2.6728905598e-07 1.2233846212e-07 -2.8454519707e-09 1.2411609262e-07 2.6686335754e-07 1.8903660447e-07 
-5.4703772951e-09 -2.1276379845e-07 -2.7315551296e-07 -2.6957374803e-08 2.6456052973e-07 3.4012811436e-07 2.6303895862e-07 9.658664202e-08 -5.6602722084e-09 
1.0986677915e-07 2.6706975087e-07 2.8985059771e-07 2.6682164814e-07 2.8659523062e-07 2.7041957227e-07 1.3954290019e-07 -4.4907193124e-09 -6.0137219921e-08 
-5.0748722797e-09 1.8301805297e-07 2.6740930226e-07 1.136662203e-08 -2.7185911275e-07 -2.6901702713e-07 -3.1738270214e-07 2.5853002578e-07 4.2436445286e-07 
3.2551088407e-07 1.0735962439e-07 1.3384686051e-08 2.8706008132e-07 5.6479414159e-07 4.8299519829e-07 2.630128595e-07 1.2619673331e-07 1.3887654247e-07 
3.6738200977e-07 5.7562638461e-07 5.2752291643e-07 3.8327223126e-07 3.0307495515e-07 2.6390610382e-07 2.4274069297e-07 2.887731035e-07 4.5119771625e-07 
5.6499033794e-07 4.6512677524e-07 3.1078528753e-07 2.6114413415e-07 2.5840465853e-07 2.4476820406e-07 2.6115244839e-07 3.4847506917e-07 3.2494525911e-07 
8.772210904e-09 -3.04013851e-07 -3.1738270214e-07 0 0 1.255615695e-10 2.5849394142e-26 -7.5336941698e-10 2.0679515314e-25 
4.3946549324e-09 1.6543612251e-24 -2.5614560177e-08 1.3234889801e-23 1.4929270613e-07 2.623542409e-07 1.7927528697e-07 -6.6174449004e-24 -1.7552746438e-07 
-2.623542409e-07 -1.7552746427e-07 -6.6174449004e-24 1.7927528642e-07 2.623542409e-07 1.4929270933e-07 -1.6130021945e-23 -2.5614578845e-08 -2.5849394142e-26 
4.394763738e-09 4.8467614017e-25 -7.540035825e-10 8.8857292364e-27 1.29257757e-10 1.0097419587e-27 -2.15429595e-11 -8.0779356695e-28 0 

s_xy 1 1089 double
0 0 0 0 0 0 0 0 0 
0 0 0 0 0 0 0 0 0 
0 0 0 0 0 0 0 0 0 
0 0 0 0 0 0 0 0 0 
0 0 0 0 0 0 0 0 0 
0 0 0 0 0 0 0 0 0 
0 0 0 0 0 0 0 0 0 
0 0 0 0 0 0 0 0 0 
0 0 0 0 0 0 0 0 0 
0 0 0 0 0 0 0 0 0 
0 0 0 0 0 0 0 0 0 
0 0 0 0 0 0 0 0 0 
0 0 0 0 0 0 0 0 0 
0 0 0 0 0 0 0 0 0 
0 0 0 0 0 0 0 0 0 
0 0 0 0 0 0 0 0 0 
0 0 0 0 0 0 0 0 0 
0 0 0 0 0 0 0 0 0 
0 0 0 0 0 0 0 0 0 
0 0 0 0 0 0 0 0 0 
0 0 0 0 0 0 0 0 0 
0 0 0 0 0 0 0 0 0 
0 0 0 0 0 0 0 0 0 
0 0 0 0 0 0 0 0 0 
0 0 0 0 0 0 0 0 0 
0 0 0 0 0 0 0 0 0 
0 0 0 0 0 0 0 0 0 
0 0 0 0 0 0 0 0 0 
0 0 0 0 0 0 0 0 0 
0 0 0 0 0 0 0 0 0 
0 0 0 0 0 0 0 0 0 
0 0 0 0 0 0 0 0 0 
0 0 0 0 0 0 0 0 0 
0 0 0 0 0 0 0 0 0 
0 0 0 0 0 0 0 0 0 
0 0 0 0 0 0 0 0 0 
0 0 0 0 0 0 0 0 0 
0 0 0 0 0 0 0 0 0 
0 0 0 0 0 0 0 0 0 
0 0 0 0 0 0 0 0 0 
0 0 0 0 0 0 0 0 0 
0 0 0 0 0 0 0 0 0 
0 0 0 0 0 0 0 0 0 
0 0 0 0 0 0 0 0 0 
0 0 0 0 0 0 0 0 0 
0 0 0 0 0 0 0 0 0 
0 0 0 0 0 0 0 0 0 
0 0 0 0 0 0 0 0 0 
0 0 0 0 0 0 0 0 0 
0 0 0 0 0 0 0 0 0 
0 0 0 0 0 0 0 0 0 
0 0 0 0 0 0 0 0 0 
0 0 0 0 0 0 0 0 0 
0 0 0 0 0 0 0 0 0 
0 0 0 0 0 0 0 0 0 
0 0 0 0 0 0 0 0 0 
0 0 0 0 0 0 0 0 0 
0 0 0 0 0 0 0 0 0 
0 0 0 0 0 0 0 0 0 
0 0 0 0 0 0 0 0 0 
0 0 0 0 0 0 0 0 0 
0 0 0 0 0 0 0 0 0 
0 0 0 0 0 0 0 0 0 
0 0 0 0 0 0 0 0 0 
0 0 0 0 0 0 0 0 0 
0 0 0 0 0 0 0 0 0 
0 0 0 0 0 0 0 0 0 
0 0 0 0 0 0 0 0 0 
0 0 0 0 0 0 0 0 0 
0 0 0 0 0 0 0 0 0 
0 0 0 0 0 0 0 0 0 
0 0 0 0 0 0 0 0 0 
0 0 0 0 0 0 0 0 0 
0 0 0 0 0 0 0 0 0 
0 0 0 0 0 0 0 0 0 
0 0 0 0 0 0 0 0 0 
0 0 0 0 0 0 0 0 0 
0 0 0 0 0 0 0 0 0 
0 0 0 0 0 0 0 0 0 
0 0 0 0 0 0 0 0 0 
0 0 0 0 0 0 0 0 0 
0 0 0 0 0 0 0 0 0 
0 0 0 0 0 0 0 0 0 
0 0 0 0 0 0 0 0 0 
0 0 0 0 0 0 0 0 0 
0 0 0 0 0 0 0 0 0 
0 0 0 0 0 0 0 0 0 
0 0 0 0 0 0 0 0 0 
0 0 0 0 0 0 0 0 0 
0 0 0 0 0 0 0 0 0 
0 0 0 0 0 0 0 0 0 
0 0 0 0 0 0 0 0 0 
0 0 0 0 0 0 0 0 0 
0 0 0 0 0 0 0 0 0 
0 0 0 0 0 0 0 0 0 
0 0 0 0 0 0 0 0 0 
0 0 0 0 0 0 0 0 0 
0 0 0 0 0 0 0 0 0 
0 0 0 0 0 0 0 0 0 
0 0 0 0 0 0 0 0 0 
0 0 0 0 0 0 0 0 0 
0 0 0 0 0 0 0 0 0 
0 0 0 0 0 0 0 0 0 
0 0 0 0 0 0 0 0 0 
0 0 0 0 0 0 0 0 0 
0 0 0 0 0 0 0 0 0 
0 0 0 0 0 0 0 0 0 
0 0 0 0 0 0 0 0 0 
0 0 0 0 0 0 0 0 0 
0 0 0 0 0 0 0 0 0 
0 0 0 0 0 0 0 0 0 
0 0 0 0 0 0 0 0 0 
0 0 0 0 0 0 0 0 0 
0 0 0 0 0 0 0 0 0 
0 0 0 0 0 0 0 0 0 
0 0 0 0 0 0 0 0 0 
0 0 0 0 0 0 0 0 0 
0 0 0 0 0 0 0 0 0 
0 0 0 0 0 0 0 0 0 
0 0 0 0 0 0 0 0 0 
0 0 0 0 0 0 0 0 0 

s_yy 1 1089 double
0 0 1.255615695e-10 2.5849394142e-26 -7.5336941698e-10 2.0679515314e-25 4.3946549324e-09 1.6543612251e-24 -2.5614560177e-08 
1.3234889801e-23 1.4929270613e-07 2.623542409e-07 1.7927528697e-07 -6.6174449004e-24 -1.7552746438e-07 -2.623542409e-07 -1.7552746427e-07 -6.6174449004e-24 
1.7927528642e-07 2.623542409e-07 1.4929270933e-07 -1.6130021945e-23 -2.5614578845e-08 -2.5849394142e-26 4.394763738e-09 4.8467614017e-25 -7.540035825e-10 
8.8857292364e-27 1.29257757e-10 1.0097419587e-27 -2.15429595e-11 -8.0779356695e-28 0 3.1737544988e-07 3.0386730176e-07 3.1704156824e-07 
3.3377247621e-07 3.3093425255e-07 3.2002037878e-07 3.1252433638e-07 2.5119367691e-07 7.877595192e-08 -7.7483922123e-08 -9.0341028756e-08 -4.1177404962e-08 
-1.1375087728e-08 -9.9118876823e-09 -4.5765615457e-08 -3.5035725425e-08 1.0617832804e-07 2.5262208158e-07 2.7904107183e-07 2.7837746186e-07 3.4357341472e-07 
3.0171566507e-07 -2.0109052437e-08 -2.5267479533e-07 -2.6755621116e-08 3.0711184988e-07 3.9839099735e-07 3.1644871947e-07 1.3065191444e-07 -1.4478807225e-10 
8.2913241598e-08 2.3652149155e-07 3.1737544988e-07 2.6901856889e-07 2.7189026767e-07 2.6594030092e-07 2.6553272314e-07 2.8503158889e-07 2.6845628314e-07 
1.5982619091e-07 -2.9577358875e-09 -1.8199454534e-07 -2.6957357957e-07 -1.5798418067e-07 7.2451515062e-10 5.4503371714e-08 2.10716936e-09 -1.5770931157e-07 
-2.7056825248e-07 -1.8209183477e-07 -3.2614006035e-09 1.5494170786e-07 2.6927976154e-07 3.1651503135e-07 2.7234768437e-07 1.1247788765e-07 3.2726070251e-09 
1.1109880833e-07 2.7120050881e-07 3.1882172573e-07 2.6921558261e-07 1.3763520299e-07 3.078051319e-11 -6.7647491163e-08 1.614257116e-10 2.6901856889e-07 
1.1935709709e-07 3.1341091451e-07 1.2302679966e-07 -1.0860631846e-07 -3.8299510846e-08 8.8310971413e-08 2.5588877231e-08 -7.7735040661e-08 -7.293002953e-08 
-2.8932294754e-08 -1.467804171e-08 1.4341629805e-08 1.0263562e-07 1.5184097999e-07 6.3594760913e-08 -5.8190454072e-08 -1.0960208181e-07 -9.4501627854e-08 
-1.6750597745e-08 1.0811677181e-07 2.6456624412e-07 3.386667855e-07 2.164873623e-07 9.5120380827e-08 1.7165824738e-07 2.7532646964e-07 2.3535055527e-07 
1.3023504119e-07 3.848446433e-08 1.699519671e-09 6.1480902207e-08 1.2998222399e-07 1.1935709709e-07 -1.5864112001e-09 2.7718859353e-07 3.1432933898e-08 
-2.7832384374e-07 -1.9155219302e-07 2.7909962566e-10 5.7012477393e-09 1.7256556344e-09 1.6536372762e-07 2.8364299807e-07 1.4359100134e-07 2.1475468288e-11 
1.0774815847e-07 2.8131150497e-07 3.3525196961e-07 2.8451783242e-07 1.4405737341e-07 2.7331323883e-09 -5.0592350851e-08 -2.7757964499e-11 1.7031822939e-07 
2.7567100963e-07 1.3125598115e-07 -2.7703122406e-09 1.3374867327e-07 2.7947702543e-07 1.7307883201e-07 -2.2400490385e-09 -6.3273759774e-08 -1.0212135252e-10 
1.9719504507e-07 2.7967964621e-07 -1.5864112001e-09 -2.4660310448e-08 -2.3908627544e-08 6.0132492556e-08 1.5083570515e-07 1.7157366553e-07 1.397773913e-07 
7.2877900074e-08 4.8726439359e-08 1.4517425668e-07 2.1732679798e-07 1.202895092e-07 2.2381535268e-08 9.1922021089e-08 2.1124494546e-07 2.6268428716e-07 
2.564664291e-07 2.0281775417e-07 1.5427015625e-07 1.6335552924e-07 1.3962270942e-07 -7.3794669295e-09 -1.644652233e-07 -2.1844878321e-07 -1.5682211746e-07 
3.2922803131e-08 1.6955764994e-07 7.1854094331e-08 -6.9524888927e-08 -6.3916325086e-08 -7.0094342238e-09 5.5065635796e-09 -6.8748792903e-09 -2.4660310448e-08 
4.0092899104e-10 -2.9026651212e-07 1.018278537e-07 5.7925614682e-07 5.445904876e-07 2.8916211366e-07 1.0430226263e-07 -1.7065884196e-09 -2.0581962425e-08 
-2.9820598987e-09 4.3491864442e-10 -1.2843704964e-09 9.0672897772e-10 -4.1423810993e-09 -2.7582298893e-08 -4.6847119083e-09 1.2927869235e-07 2.8991406183e-07 
3.9282754448e-07 2.8897193873e-07 -1.7069995699e-07 -5.8018719043e-07 -5.3348880936e-07 -2.8979015707e-07 -1.0827657688e-07 -2.9147449666e-09 1.2328662463e-08 
2.5792281601e-09 3.2962534874e-08 3.4032738661e-10 -1.9842564952e-07 -2.896379357e-07 4.0092899104e-10 7.609306634e-09 -2.1185741975e-07 4.874280477e-08 
3.8437138713e-07 3.8998973426e-07 2.1126474089e-07 -6.1366982592e-09 -1.5458759063e-07 -1.2646094365e-07 -5.7451317565e-08 -8.3253272619e-08 -1.4714158531e-07 
-1.9239103215e-07 -2.3374486707e-07 -2.8594634403e-07 -2.2609617381e-07 6.8704932803e-08 3.5454129788e-07 3.8749724348e-07 1.8973167071e-07 -2.1659651935e-07 
-5.464007232e-07 -5.1459433736e-07 -3.4452358759e-07 -2.5953469967e-07 -1.5929622005e-07 5.6523304784e-08 2.2086768675e-07 1.6668073775e-07 2.7515497195e-08 
-6.3074995506e-08 -7.8555479359e-08 7.609306634e-09 -1.1915517701e-10 2.5217763558e-09 -5.2944461474e-09 -3.9844440751e-09 2.6035161184e-08 -3.1097065541e-09 
-1.7929312347e-07 -2.9605494611e-07 -1.4693503099e-07 9.2468546635e-10 -1.1961773313e-07 -2.9615490882e-07 -3.1627946361e-07 -2.9384992634e-07 -3.4272482584e-07 
-2.9449576982e-07 1.9245634033e-08 2.9292276362e-07 2.2095899684e-07 -2.2469731138e-09 -1.8229645306e-07 -2.9130418538e-07 -3.0138491242e-07 -2.9330441136e-07 
-3.4782845934e-07 -2.9651548011e-07 2.9076102613e-08 2.9355926363e-07 1.6154697776e-07 -1.0482662287e-09 1.7168602043e-07 2.9893425251e-07 -1.1915517701e-10 
-4.6108183076e-09 7.1878860208e-08 3.2178370823e-08 -5.532021106e-08 -1.2222481004e-07 -1.9632530358e-07 -3.0541156917e-07 -3.2127373229e-07 -1.1570191841e-07 
3.8464489103e-08 -1.316138931e-07 -3.2335999648e-07 -2.3419675248e-07 -9.4805016195e-08 -1.3586564274e-07 -1.7614644138e-07 -3.4415221399e-08 1.0269895985e-07 
4.8567045006e-08 -6.8921666511e-08 -1.2187787528e-07 -1.2897277695e-07 -1.0887756719e-07 -1.4154427617e-07 -3.0692493407e-07 -3.9632229935e-07 -2.0103913049e-07 
-6.9017733268e-09 -9.9736573696e-08 -1.4442180679e-07 1.9416425222e-07 4.0958133711e-07 -4.6108183076e-09 9.3493858477e-11 -1.168081111e-09 2.335662464e-08 
8.5939223534e-12 -1.4487119045e-07 -3.0072840408e-07 -3.5700872252e-07 -2.9995835494e-07 -1.1582351046e-07 -8.1015566769e-10 -1.5112425717e-07 -2.9993611487e-07 
-1.8041602869e-07 -5.7474386714e-10 3.1576994357e-08 1.7090971511e-09 -4.5085243197e-09 -7.8168594962e-11 1.9978657853e-09 1.1945527418e-09 -3.0131338049e-09 
1.6119695429e-09 2.7307026183e-08 1.1369353812e-09 -1.498334036e-07 -2.9779223027e-07 -3.1492778417e-07 -3.0190935418e-07 -3.5940622918e-07 -3.0146709757e-07 
5.7859352264e-08 2.9842794213e-07 9.3493858477e-11 1.079577941e-08 -1.4433542307e-07 -1.6031800587e-07 -1.4739680665e-07 -2.1581666305e-07 -3.012498248e-07 
-3.3936854159e-07 -3.1393335992e-07 -2.0870482627e-07 -1.3466626971e-07 -2.0280101932e-07 -3.1335269802e-07 -3.6656492873e-07 -3.1688277645e-07 -1.1875130618e-07 
8.5932465074e-08 1.5527152028e-07 1.5454584022e-07 1.4903540567e-07 1.5595411075e-07 1.9251584958e-07 1.9797327182e-07 1.1157902713e-07 3.2689475987e-08 
6.0660978839e-08 7.6268234767e-08 -3.9714057152e-08 -2.0908706862e-07 -3.5365197135e-07 -3.5546720127e-07 -9.6591194294e-08 1.2486636184e-07 1.079577941e-08 
-1.6928137877e-10 -3.0521946778e-07 -3.573868193e-07 -3.0485101064e-07 -2.9579171648e-07 -3.0428549914e-07 -3.0440892098e-07 -3.0385226925e-07 -3.1030583126e-07 
-3.0529805669e-07 -2.7035739528e-07 -3.0385679018e-07 -5.041691846e-07 -6.0946235986e-07 -3.5790409734e-07 -1.0904597741e-09 2.0938249009e-07 3.0470389158e-07 
3.16062884e-07 3.0501753434e-07 3.3312590956e-07 3.0437291481e-07 1.2274345522e-07 -2.8517307081e-10 1.4676432608e-07 3.0471515861e-07 2.1439053042e-07 
1.2467570165e-09 -2.0925984609e-07 -3.0350703987e-07 -1.678725853e-07 -6.5911994653e-10 -1.6928137877e-10 -3.9117160034e-08 -4.1311501606e-07 -3.7180877277e-07 
-2.2824561938e-07 -2.9547274508e-07 -3.7819591714e-07 -2.8112090283e-07 -1.9485713017e-07 -3.1001402716e-07 -4.172830245e-07 -3.0735555288e-07 -1.9502349917e-07 
-2.9507875023e-07 -4.2155564941e-07 -3.8848854007e-07 -2.4106808362e-07 -2.4484941498e-08 1.8753975378e-07 3.2128486968e-07 3.6266879527e-07 2.9760991963e-07 
1.7811566693e-07 5.6193461334e-08 -2.232488541e-08 -1.1607561552e-08 3.0379841884e-08 4.5671733876e-08 1.0381083348e-08 -9.9379140774e-08 -1.7371961847e-07 
-1.0275102972e-07 -1.5031001311e-08 -3.9117160034e-08 1.8722924178e-10 -3.060307378e-07 -1.7878554149e-07 9.0972081971e-10 -1.4795804823e-07 -3.0619740275e-07 
-1.5461689686e-07 7.5042488e-10 -1.4612848208e-07 -3.0601082458e-07 -1.8965380949e-07 7.5121889779e-10 6.3012916276e-08 1.6522801571e-09 -1.7880969195e-07 
-3.0667175881e-07 -2.1023267921e-07 -7.1486998007e-10 2.1065925206e-07 3.0627220198e-07 1.6850649488e-07 -6.6993733003e-10 7.1083727209e-10 1.0674178177e-10 
-1.7502430071e-07 -3.0778780023e-07 -1.8128926682e-07 -4.8964918706e-11 3.1412841023e-08 6.4940551834e-10 -4.786016921e-09 7.1586666179e-11 1.8722924178e-10 
1.8484285545e-07 7.8393135022e-08 1.4670800339e-07 2.2344458645e-07 1.4226001007e-07 6.130952506e-08 1.387483822e-07 2.2246422671e-07 1.6034470379e-07 
8.5209680247e-08 1.2987902289e-07 2.2253529025e-07 2.9136104086e-07 2.9055970096e-07 1.7433469682e-07 3.422652339e-08 -3.822432435e-08 -2.8433462798e-08 
7.818349165e-08 1.5126199241e-07 6.043749289e-08 -3.5285030737e-08 2.3099397699e-08 5.6231289778e-08 -1.1524884291e-07 -2.395358094e-07 -6.4824418688e-08 
1.7400788205e-07 2.4208364566e-07 1.8014976873e-07 2.8953147851e-08 -2.9988421678e-08 1.8484285545e-07 3.0776938324e-07 3.0821399519e-07 3.079826104e-07 
3.0767934627e-07 3.0790832021e-07 3.0817641212e-07 3.0799050193e-07 3.077529251e-07 3.0786601707e-07 3.0825255579e-07 3.0883531917e-07 3.0775303048e-07 
3.03144413e-07 3.0778258859e-07 3.3444067912e-07 3.0822312082e-07 1.5423434987e-07 1.5872775796e-10 -2.6319384051e-08 -1.5232973323e-10 3.707546533e-09 
8.7117695245e-11 3.8132567007e-09 3.4719318519e-10 -2.4849843215e-08 2.8913954259e-10 1.478311335e-07 3.0781154975e-07 3.7026579938e-07 3.0750212758e-07 
9.182877957e-08 -2.5016257244e-10 3.0776938324e-07 1.8474094437e-07 2.8717325255e-08 8.917098253e-08 1.8385138531e-07 1.3050800271e-07 6.1542681913e-08 
1.0935727012e-07 1.5401310067e-07 7.5571506895e-08 5.7495903941e-09 7.6264452756e-08 1.5389789663e-07 1.0543172467e-07 3.5369665376e-08 4.8215447261e-08 
6.9061647785e-08 2.3000844409e-08 -3.8049991672e-08 -6.2173889264e-08 -4.9335017828e-08 5.0245317408e-10 -1.2043987096e-09 -1.4299849593e-07 -2.3977723008e-07 
-1.0643799275e-07 8.0305759108e-08 1.4374056852e-07 1.7791438594e-07 2.7687516182e-07 3.3949797065e-07 2.6465788689e-07 1.7289288624e-07 1.8474094437e-07 
1.8579176462e-10 -3.0673142554e-07 -1.7957156437e-07 3.5125039739e-10 -1.4827710611e-07 -3.0619411402e-07 -1.5413725345e-07 -2.1509263735e-10 -1.525361998e-07 
-3.0713162585e-07 -1.6003242169e-07 -2.1692596301e-10 -1.1666347729e-07 -3.0578468781e-07 -3.6399316964e-07 -3.0618040206e-07 -1.4723786437e-07 -8.5051314069e-10 
1.929669505e-08 -3.9471988763e-10 2.6476761959e-08 -1.8922285345e-10 -1.8049303777e-07 -3.0790597948e-07 -1.758993447e-07 5.6109119675e-10 6.5095528387e-09 
6.1371395454e-12 1.3911094101e-07 3.0673450428e-07 3.8578736674e-07 3.0677072903e-07 1.8579176462e-10 -3.8815945049e-08 -2.2856637781e-07 -1.538004928e-07 
-7.3497792854e-08 -2.4663778079e-07 -3.7888505065e-07 -1.7590419643e-07 4.5185050074e-08 -3.2737042888e-08 -1.4470203708e-07 -2.5741494251e-08 4.5569225634e-08 
-2.0934523738e-07 -5.0244943658e-07 -5.4570792526e-07 -3.8175263006e-07 -5.3215477636e-08 2.1596298996e-07 2.018422307e-07 8.2692728686e-08 3.6784968023e-08 
3.9661147054e-08 6.6863464122e-08 5.5150680216e-08 -5.8718443672e-08 -1.5526182183e-07 -1.1499736853e-07 -1.1652328021e-09 1.2299443635e-07 2.2817410018e-07 
2.8506621996e-07 2.2046985259e-07 -3.8815945049e-08 -1.6091195305e-10 -7.5190165802e-10 2.8585364937e-08 -1.2114766315e-09 -1.7920479083e-07 -3.043046471e-07 
-1.7542111489e-07 2.1572157612e-09 2.3141754805e-08 1.6155371584e-09 5.1661597738e-08 2.1679920174e-09 -3.1797722453e-07 -6.0745787919e-07 -5.6495779925e-07 
-3.0433923773e-07 6.0535552367e-08 3.0549364699e-07 2.0636212206e-07 2.1506236008e-09 -6.8131202375e-08 1.1860993811e-09 2.1577198412e-07 3.0545946774e-07 
8.156614413e-11 -3.0337471701e-07 -2.0792237806e-07 9.2593620749e-10 3.7657579036e-08 2.7474205674e-09 -3.3296690553e-09 1.6322426205e-09 -1.6091195305e-10 
9.7185662812e-09 4.2462803482e-08 1.5549988249e-07 1.8311550493e-07 -4.0404627577e-08 -2.9878532702e-07 -3.757514054e-07 -3.6273225101e-07 -3.5115725218e-07 
-3.3697093873e-07 -3.1611784053e-07 -3.6412046135e-07 -5.5650130495e-07 -6.8733484334e-07 -5.5069554853e-07 -2.9487332681e-07 -6.8158084473e-08 1.575827789e-08 
-1.5681614033e-07 -3.4932058448e-07 -3.2519429993e-07 -1.9080760099e-07 -5.2530801969e-08 -2.0201678927e-08 -2.0365800792e-07 -3.6793975136e-07 -2.7808687166e-07 
-1.6779482242e-07 -2.7075905723e-07 -3.9761655376e-07 -3.5900428966e-07 -2.0615000348e-07 9.7185662812e-09 5.2169314847e-11 4.4572281779e-11 1.9148805432e-07 
3.0028785099e-07 5.2349197845e-08 -3.0063385988e-07 -5.0696727695e-07 -6.0133716422e-07 -6.1842963255e-07 -6.0163120204e-07 -5.943283928e-07 -6.0139045493e-07 
-6.2768663855e-07 -6.0300672443e-07 -4.5714049332e-07 -3.0049954146e-07 -2.4349546508e-07 -2.9895577875e-07 -4.7970799702e-07 -6.004561695e-07 -4.759043458e-07 
-3.0090261277e-07 -2.7030105728e-07 -3.0151263564e-07 -3.1195030418e-07 -3.0181259661e-07 -2.7129804662e-07 -3.0032528211e-07 -4.6881293099e-07 -6.0147704177e-07 
-5.2303366297e-07 -3.0026364311e-07 5.2169314847e-11 -7.3344835958e-10 1.6380055232e-08 1.4224641216e-07 2.0354496646e-07 2.6955062126e-08 -2.0519612902e-07 
-3.1058143516e-07 -3.2401996441e-07 -2.8033082489e-07 -2.4340106056e-07 -2.7711771539e-07 -3.190193803e-07 -3.0664464617e-07 -2.6934779672e-07 -2.3648311562e-07 
-2.1759439046e-07 -2.2222540881e-07 -2.6578635968e-07 -3.6368743204e-07 -4.1143756221e-07 -3.0454568645e-07 -1.4171485691e-07 -2.1648125699e-08 2.5784564934e-08 
-2.9286727249e-08 -1.1373034317e-07 -1.5441462374e-07 -1.9191955018e-07 -2.6682510367e-07 -3.2644788336e-07 -3.1810448838e-07 -2.1759848721e-07 -7.3344835958e-10 
6.6648787543e-11 1.2879161091e-09 1.858481419e-09 2.621137308e-09 4.4186763672e-09 -3.5347974164e-09 -3.2025180056e-08 -9.772113834e-10 1.6968436877e-07 
2.8985190651e-07 1.6941774795e-07 -7.3757159626e-10 -2.9733516815e-08 -8.5185936743e-10 2.6256290819e-09 -4.1239216573e-09 -5.9233817759e-09 -4.0689517366e-09 
1.4316799804e-10 -5.2826168827e-09 -3.234190069e-08 4.4325096983e-10 1.7455077249e-07 2.9683568801e-07 1.7415302167e-07 3.8025670811e-10 -3.0605123672e-08 
-1.8655808752e-09 3.5364236877e-09 -1.4739897207e-09 -3.9717008383e-09 -3.5827934179e-09 6.6648787543e-11 -6.2310886082e-09 -1.3768503623e-07 -2.1365981587e-07 
-1.6448887208e-07 7.9494350541e-08 2.4292943417e-07 5.0455960973e-08 -9.8735324917e-08 1.9454632064e-07 4.6013524376e-07 2.2786579052e-07 -1.1658604982e-07 
-1.87544288e-07 -7.7037321354e-08 1.2290645277e-07 2.8675062052e-07 2.8895876806e-07 2.53240554e-07 3.0330563694e-07 2.9440131666e-07 8.1774892937e-08 
-1.3602044088e-07 -1.6043149145e-07 -1.1544922208e-07 -1.2506459607e-07 -1.1386026823e-07 -6.4188933515e-09 7.0247488404e-08 -1.087316312e-08 -5.6997613484e-08 
1.2465737175e-07 2.3970760818e-07 -6.2310886082e-09 -3.8388240324e-10 -2.8648849483e-07 -3.9344683979e-07 -2.8625924416e-07 7.0073965179e-08 2.9095764129e-07 
-8.2033627553e-09 -2.8741062317e-07 -6.6657161751e-09 2.9293080143e-07 7.027837285e-08 -2.8842284131e-07 -3.9697268045e-07 -2.8543155651e-07 1.6140118572e-08 
2.9344099446e-07 3.3216972083e-07 2.9083121202e-07 3.279303824e-07 2.9197724606e-07 3.1481817103e-08 -2.8787178678e-07 -5.003994479e-07 -5.7406504733e-07 
-4.7683246611e-07 -2.8619381649e-07 -7.9641210706e-08 2.3255913318e-09 -1.8079317029e-07 -2.8492973087e-07 3.3983674313e-08 2.9061097916e-07 -3.8388240324e-10 
2.4309216353e-08 -3.2359691704e-07 -4.325094142e-07 -3.5829860167e-07 -1.5683480601e-07 -6.7286894549e-09 -8.6590914239e-08 -1.9507949993e-07 -1.308524661e-07 
-3.3790906913e-08 -4.3775916535e-08 -1.3192053607e-07 -2.6933780661e-07 -3.6176849466e-07 -3.1495336669e-07 -1.9613520844e-07 -7.2556805642e-08 9.4525535226e-09 
3.5635808742e-09 -4.8202893004e-08 -1.0382603753e-07 -1.8558130457e-07 -3.1574414599e-07 -4.1648564583e-07 -4.0997688813e-07 -3.296661566e-07 -2.0900173498e-07 
-1.602487825e-07 -2.9567245839e-07 -3.8568145801e-07 -2.0068447673e-07 1.6813932415e-08 2.4309216353e-08 1.5812960649e-09 -2.8140241822e-07 -3.2697134961e-07 
-2.8415087735e-07 -3.0196638071e-07 -2.7886208451e-07 -1.1328221356e-07 -2.523313247e-09 -1.4388192898e-07 -2.7824060361e-07 -1.4648187996e-07 1.5622715955e-09 
-8.3940119304e-08 -2.8318567682e-07 -4.7637102512e-07 -5.6077795058e-07 -4.3368823959e-07 -2.7761058405e-07 -2.7505367587e-07 -2.809980635e-07 -1.5042429543e-07 
-2.384932812e-09 4.4067463183e-08 -6.2345585395e-09 -1.4845844907e-07 -2.8149084176e-07 -3.0421836993e-07 -2.7955278144e-07 -2.7040582415e-07 -2.8454982172e-07 
-3.2975709784e-07 -2.7729195706e-07 1.5812960649e-09 -1.192719702e-07 -1.9934439449e-07 -1.0210441094e-07 -1.1631905241e-08 -1.1200676308e-07 -1.9260462197e-07 
-4.2801119393e-08 8.5932761716e-08 -5.7873961571e-08 -2.5196381246e-07 -2.7407931415e-07 -2.0228914835e-07 -1.146619968e-07 -7.6711331948e-08 -1.5395062626e-07 
-2.5613096583e-07 -2.9300343678e-07 -2.6244869744e-07 -1.6234740616e-07 -4.9402503013e-08 1.9683071939e-08 8.362981267e-08 1.8115821315e-07 1.9671229894e-07 
1.4736095579e-08 -1.9787283606e-07 -2.742169351e-07 -2.301263418e-07 -8.1431196407e-08 -4.9926100407e-09 -1.7767169382e-07 -3.1169072234e-07 -1.192719702e-07 
-2.6901702713e-07 -4.5173711509e-09 1.9962755072e-07 2.6728905598e-07 1.2233846212e-07 -2.8454519707e-09 1.2411609262e-07 2.6686335754e-07 1.8903660447e-07 
-5.4703772951e-09 -2.1276379845e-07 -2.7315551296e-07 -2.6957374803e-08 2.6456052973e-07 3.4012811436e-07 2.6303895862e-07 9.658664202e-08 -5.6602722084e-09 
1.0986677915e-07 2.6706975087e-07 2.8985059771e-07 2.6682164814e-07 2.8659523062e-07 2.7041957227e-07 1.3954290019e-07 -4.4907193124e-09 -6.0137219921e-08 
-5.0748722797e-09 1.8301805297e-07 2.6740930226e-07 1.136662203e-08 -2.7185911275e-07 -2.6901702713e-07 -3.1738270214e-07 2.5853002578e-07 4.2436445286e-07 
3.2551088407e-07 1.0735962439e-07 1.3384686051e-08 2.8706008132e-07 5.6479414159e-07 4.8299519829e-07 2.630128595e-07 1.2619673331e-07 1.3887654247e-07 
3.6738200977e-07 5.7562638461e-07 5.2752291643e-07 3.8327223126e-07 3.0307495515e-07 2.6390610382e-07 2.4274069297e-07 2.887731035e-07 4.5119771625e-07 
5.6499033794e-07 4.6512677524e-07 3.1078528753e-07 2.6114413415e-07 2.5840465853e-07 2.4476820406e-07 2.6115244839e-07 3.4847506917e-07 3.2494525911e-07 
8.772210904e-09 -3.04013851e-07 -3.1738270214e-07 0 0 1.255615695e-10 2.5849394142e-26 -7.5336941698e-10 2.0679515314e-25 
4.3946549324e-09 1.6543612251e-24 -2.5614560177e-08 1.3234889801e-23 1.4929270613e-07 2.623542409e-07 1.7927528697e-07 -6.6174449004e-24 -1.7552746438e-07 
-2.623542409e-07 -1.7552746427e-07 -6.6174449004e-24 1.7927528642e-07 2.623542409e-07 1.4929270933e-07 -1.6130021945e-23 -2.5614578845e-08 -2.5849394142e-26 
4.394763738e-09 4.8467614017e-25 -7.540035825e-10 8.8857292364e-27 1.29257757e-10 1.0097419587e-27 -2.15429595e-11 -8.0779356695e-28 0 

s_zz 1 1089 double
0 0 1.4062895784e-10 0 -8.4377374702e-10 2.0679515314e-25 4.9220135243e-09 1.6543612251e-24 -2.8688307399e-08 
6.6174449004e-24 1.6720783087e-07 2.938367498e-07 2.0078832141e-07 0 -1.9659076011e-07 -2.938367498e-07 -1.9659075998e-07 -6.6174449004e-24 
2.0078832079e-07 2.938367498e-07 1.6720783446e-07 -1.7991178323e-23 -2.8688328307e-08 -3.9808066979e-24 4.9221353866e-09 1.6155871339e-25 -8.444840124e-10 
1.6155871339e-26 1.4476868784e-10 -6.0584517521e-28 -2.412811464e-11 0 0 3.5546050387e-07 3.4033137797e-07 3.5508655643e-07 
3.7382517335e-07 3.7064636286e-07 3.5842282423e-07 3.5002725674e-07 2.8133691814e-07 8.822906615e-08 -8.6781992778e-08 -1.0118195221e-07 -4.6118693558e-08 
-1.2740098255e-08 -1.1101314204e-08 -5.1257489312e-08 -3.9240012476e-08 1.1891972741e-07 2.8293673137e-07 3.1252600045e-07 3.1178275728e-07 3.8480222449e-07 
3.3792154488e-07 -2.252213873e-08 -2.8299577077e-07 -2.996629565e-08 3.4396527187e-07 4.4619791703e-07 3.5442256581e-07 1.4633014418e-07 -1.6216264092e-10 
9.286283059e-08 2.6490407054e-07 3.5546050387e-07 3.0130079715e-07 3.0451709979e-07 2.9785313703e-07 2.9739664992e-07 3.1923537955e-07 3.0067103712e-07 
1.7900533382e-07 -3.312664194e-09 -2.0383389078e-07 -3.0192240911e-07 -1.7694228235e-07 8.1145696869e-10 6.104377632e-08 2.3600296832e-09 -1.7663442896e-07 
-3.0303644278e-07 -2.0394285494e-07 -3.6527686759e-09 1.735347128e-07 3.0159333292e-07 3.5449683511e-07 3.0502940649e-07 1.2597523417e-07 3.6653198681e-09 
1.2443066533e-07 3.0374456987e-07 3.5708033282e-07 3.0152145253e-07 1.5415142735e-07 3.4474174772e-11 -7.5765190102e-08 1.80796797e-10 3.0130079715e-07 
1.3367994874e-07 3.5102022426e-07 1.3779001562e-07 -1.2163907667e-07 -4.2895452147e-08 9.8908287983e-08 2.8659542498e-08 -8.7063245541e-08 -8.1681633074e-08 
-3.2404170124e-08 -1.6439406715e-08 1.6062625382e-08 1.1495189439e-07 1.7006189759e-07 7.1226132223e-08 -6.5173308561e-08 -1.2275433163e-07 -1.058418232e-07 
-1.8760669474e-08 1.2109078443e-07 2.9631419341e-07 3.7930679976e-07 2.4246584578e-07 1.0653482653e-07 1.9225723707e-07 3.0836564599e-07 2.635926219e-07 
1.4586324614e-07 4.310260005e-08 1.9034620315e-09 6.8858610472e-08 1.4558009087e-07 1.3367994874e-07 -1.7767805441e-09 3.1045122476e-07 3.5204885966e-08 
-3.1172270499e-07 -2.1453845618e-07 3.1259158074e-10 6.3853974681e-09 1.9327343105e-09 1.8520737494e-07 3.1768015783e-07 1.608219215e-07 2.4052524482e-11 
1.2067793748e-07 3.1506888557e-07 3.7548220597e-07 3.1865997231e-07 1.6134425822e-07 3.0611082749e-09 -5.6663432953e-08 -3.1088920238e-11 1.9075641692e-07 
3.0875153078e-07 1.4700669889e-07 -3.1027497095e-09 1.4979851406e-07 3.1301426848e-07 1.9384829185e-07 -2.5088549231e-09 -7.0866610947e-08 -1.1437591482e-10 
2.2085845048e-07 3.1324120376e-07 -1.7767805441e-09 -2.7619547702e-08 -2.6777662849e-08 6.7348391663e-08 1.6893598977e-07 1.9216250539e-07 1.5655067826e-07 
8.1623248083e-08 5.4573612082e-08 1.6259516748e-07 2.4340601374e-07 1.3472425031e-07 2.5067319501e-08 1.0295266362e-07 2.3659433891e-07 2.9420640162e-07 
2.872424006e-07 2.2715588467e-07 1.7278257501e-07 1.8295819275e-07 1.5637743455e-07 -8.2650029611e-09 -1.842010501e-07 -2.4466263719e-07 -1.7564077155e-07 
3.6873539507e-08 1.8990456793e-07 8.0476585651e-08 -7.7867875599e-08 -7.1586284096e-08 -7.8505663307e-09 6.1673512092e-09 -7.6998648051e-09 -2.7619547702e-08 
4.4904046996e-10 -3.2509849358e-07 1.1404719614e-07 6.4876688444e-07 6.0994134611e-07 3.238615673e-07 1.1681853415e-07 -1.91137903e-09 -2.3051797916e-08 
-3.3399070866e-09 4.8710888175e-10 -1.4384949559e-09 1.015536455e-09 -4.6394668312e-09 -3.0892174761e-08 -5.2468773372e-09 1.4479213543e-07 3.2470374925e-07 
4.3996684982e-07 3.2364857138e-07 -1.9118395182e-07 -6.4980965328e-07 -5.9750746648e-07 -3.2456497592e-07 -1.212697661e-07 -3.2645143626e-09 1.3808101958e-08 
2.8887355393e-09 3.6918039059e-08 3.8116667301e-10 -2.2223672746e-07 -3.2439448799e-07 4.4904046996e-10 8.5224234301e-09 -2.3728031012e-07 5.4591941342e-08 
4.3049595358e-07 4.3678850237e-07 2.366165098e-07 -6.8731020503e-09 -1.731381015e-07 -1.4163625689e-07 -6.4345475672e-08 -9.3243665333e-08 -1.6479857555e-07 
-2.1547795601e-07 -2.6179425112e-07 -3.2025990532e-07 -2.5322771467e-07 7.6949524739e-08 3.9708625363e-07 4.339969127e-07 2.1249947119e-07 -2.4258810167e-07 
-6.1196880998e-07 -5.7634565784e-07 -3.858664181e-07 -2.9067886363e-07 -1.7841176646e-07 6.3306101358e-08 2.4737180916e-07 1.8668242628e-07 3.0817356859e-08 
-7.0643994967e-08 -8.7982136882e-08 8.5224234301e-09 -1.3345379826e-10 2.8243895185e-09 -5.9297796851e-09 -4.4625773642e-09 2.9159380526e-08 -3.4828713406e-09 
-2.0080829829e-07 -3.3158153964e-07 -1.6456723471e-07 1.0356477223e-09 -1.3397186111e-07 -3.3169349788e-07 -3.5423299924e-07 -3.291119175e-07 -3.8385180494e-07 
-3.298352622e-07 2.1555110117e-08 3.2807349525e-07 2.4747407646e-07 -2.5166098875e-09 -2.0417202743e-07 -3.2626068762e-07 -3.3755110191e-07 -3.2850094072e-07 
-3.8956787446e-07 -3.3209733772e-07 3.2565234927e-08 3.2878637527e-07 1.8093261509e-07 -1.1740581762e-09 1.9228834288e-07 3.3480636282e-07 -1.3345379826e-10 
-5.1641165045e-09 8.0504323433e-08 3.6039775321e-08 -6.1958636387e-08 -1.3689178724e-07 -2.1988434001e-07 -3.4206095747e-07 -3.5982658017e-07 -1.2958614862e-07 
4.3080227795e-08 -1.4740756028e-07 -3.6216319606e-07 -2.6230036277e-07 -1.0618161814e-07 -1.5216951987e-07 -1.9728401435e-07 -3.8545047967e-08 1.1502283503e-07 
5.4395090407e-08 -7.7192266492e-08 -1.3650322031e-07 -1.4444951018e-07 -1.2194287525e-07 -1.5852958931e-07 -3.4375592616e-07 -4.4388097528e-07 -2.2516382615e-07 
-7.729986126e-09 -1.1170496254e-07 -1.617524236e-07 2.1746396249e-07 4.5873109757e-07 -5.1641165045e-09 1.0471312149e-10 -1.3082508444e-09 2.6159419597e-08 
9.6251930358e-12 -1.6225573331e-07 -3.3681581256e-07 -3.9984976923e-07 -3.3595335753e-07 -1.2972233171e-07 -9.0737434781e-10 -1.6925916803e-07 -3.3592844865e-07 
-2.0206595213e-07 -6.437131312e-10 3.536623368e-08 1.9141888092e-09 -5.0495472381e-09 -8.7548826357e-11 2.2376096796e-09 1.3378990708e-09 -3.3747098615e-09 
1.8054058881e-09 3.0583869325e-08 1.273367627e-09 -1.6781341203e-07 -3.335272979e-07 -3.5271911827e-07 -3.3813847668e-07 -4.0253497668e-07 -3.3764314928e-07 
6.4802474535e-08 3.3423929519e-07 1.0471312149e-10 1.2091272939e-08 -1.6165567384e-07 -1.7955616658e-07 -1.6508442345e-07 -2.4171466262e-07 -3.3739980378e-07 
-3.8009276658e-07 -3.5160536311e-07 -2.3374940542e-07 -1.5082622208e-07 -2.2713714164e-07 -3.5095502178e-07 -4.1055272018e-07 -3.5490870962e-07 -1.3300146292e-07 
9.6244360882e-08 1.7390410271e-07 1.7309134104e-07 1.6691965435e-07 1.7466860404e-07 2.1561775153e-07 2.2173006444e-07 1.2496851039e-07 3.6612213106e-08 
6.79402963e-08 8.5420422939e-08 -4.447974401e-08 -2.3417751686e-07 -3.9609020792e-07 -3.9812326542e-07 -1.0818213761e-07 1.3985032526e-07 1.2091272939e-08 
-1.8959514423e-10 -3.4184580391e-07 -4.0027323762e-07 -3.4143313192e-07 -3.3128672245e-07 -3.4079975904e-07 -3.4093799149e-07 -3.4031454157e-07 -3.4754253101e-07 
-3.419338235e-07 -3.0280028271e-07 -3.4031960501e-07 -5.6466948675e-07 -6.8259784305e-07 -4.0085258902e-07 -1.221314947e-09 2.345083889e-07 3.4126835857e-07 
3.5399043008e-07 3.4161963846e-07 3.7310101871e-07 3.4089766459e-07 1.3747266985e-07 -3.193938393e-10 1.6437604521e-07 3.4128097764e-07 2.4011739407e-07 
1.3963678585e-09 -2.3437102762e-07 -3.3992788465e-07 -1.8801729553e-07 -7.3821434011e-10 -1.8959514423e-10 -4.3811219239e-08 -4.6268881799e-07 -4.1642582551e-07 
-2.556350937e-07 -3.3092947448e-07 -4.2357942719e-07 -3.1485541117e-07 -2.1823998579e-07 -3.4721571042e-07 -4.6735698744e-07 -3.4423821922e-07 -2.1842631907e-07 
-3.3048820026e-07 -4.7214232734e-07 -4.3510716488e-07 -2.6999625366e-07 -2.7423134477e-08 2.1004452423e-07 3.5983905404e-07 4.061890507e-07 3.3332310999e-07 
1.9948954696e-07 6.2936676694e-08 -2.5003871659e-08 -1.3000468939e-08 3.402542291e-08 5.1152341941e-08 1.162681335e-08 -1.1130463767e-07 -1.9456597269e-07 
-1.1508115329e-07 -1.6834721468e-08 -4.3811219239e-08 2.0969675079e-10 -3.4275442634e-07 -2.0023980647e-07 1.0188873181e-09 -1.6571301401e-07 -3.4294109108e-07 
-1.7317092448e-07 8.404758656e-10 -1.6366389993e-07 -3.4273212354e-07 -2.1241226663e-07 8.4136516553e-10 7.0574466229e-08 1.8505537759e-09 -2.0026685498e-07 
-3.4347236987e-07 -2.3546060072e-07 -8.0065437768e-10 2.359383623e-07 3.4302486622e-07 1.8872727426e-07 -7.5032980964e-10 7.9613774474e-10 1.1955079558e-10 
-1.9602721679e-07 -3.4472233625e-07 -2.0304397883e-07 -5.4840708951e-11 3.5182381945e-08 7.2733418054e-10 -5.3603389516e-09 8.017706612e-11 2.0969675079e-10 
2.070239981e-07 8.7800311224e-08 1.643129638e-07 2.5025793682e-07 1.5933121128e-07 6.8666668068e-08 1.5539818807e-07 2.4915993391e-07 1.7958606824e-07 
9.5434841876e-08 1.4546450564e-07 2.4923952508e-07 3.2632436576e-07 3.2542686508e-07 1.9525486043e-07 3.8333706197e-08 -4.2811243272e-08 -3.1845478334e-08 
8.7565510648e-08 1.694134315e-07 6.7689992037e-08 -3.9519234425e-08 2.5871325422e-08 6.2979044551e-08 -1.2907870406e-07 -2.6828010653e-07 -7.2603348931e-08 
1.948888279e-07 2.7113368314e-07 2.0176774098e-07 3.2427525593e-08 -3.3587032279e-08 2.070239981e-07 3.4470170923e-07 3.4519967461e-07 3.4494052365e-07 
3.4460086783e-07 3.4485731863e-07 3.4515758157e-07 3.4494936216e-07 3.4468327611e-07 3.4480993912e-07 3.4524286249e-07 3.4589555747e-07 3.4468339414e-07 
3.3952174256e-07 3.4471649922e-07 3.7457356062e-07 3.4520989531e-07 1.7274247186e-07 1.7777508892e-10 -2.9477710137e-08 -1.7060930122e-10 4.152452117e-09 
9.7571818675e-11 4.2708475047e-09 3.8885636741e-10 -2.7831824401e-08 3.238362877e-10 1.6557086952e-07 3.4474893572e-07 4.146976953e-07 3.4440238289e-07 
1.0284823312e-07 -2.8018208113e-10 3.4470170923e-07 2.0690985769e-07 3.2163404285e-08 9.9871500434e-08 2.0591355155e-07 1.4616896303e-07 6.8927803742e-08 
1.2248014253e-07 1.7249467275e-07 8.4640087723e-08 6.4395412414e-09 8.5416187086e-08 1.7236564423e-07 1.1808353163e-07 3.9614025221e-08 5.4001300932e-08 
7.7349045519e-08 2.5760945738e-08 -4.2615990672e-08 -6.9634755975e-08 -5.5255219967e-08 5.6274755497e-10 -1.3489265547e-09 -1.6015831544e-07 -2.6855049769e-07 
-1.1921055187e-07 8.9942450201e-08 1.6098943674e-07 1.9926411225e-07 3.1010018124e-07 3.8023772713e-07 2.9641683332e-07 1.9364003258e-07 2.0690985769e-07 
2.0808677638e-10 -3.435391966e-07 -2.0112015209e-07 3.9340044508e-10 -1.6607035885e-07 -3.429374077e-07 -1.7263372387e-07 -2.4090375383e-10 -1.7084054378e-07 
-3.4398742095e-07 -1.792363123e-07 -2.4295707857e-10 -1.3066309457e-07 -3.4247885034e-07 -4.0767234999e-07 -3.4292205031e-07 -1.649064081e-07 -9.5257471757e-10 
2.1612298456e-08 -4.4208627415e-10 2.9653973394e-08 -2.1192959587e-10 -2.021522023e-07 -3.4485469702e-07 -1.9700726607e-07 6.2842214036e-10 7.2906991794e-09 
6.8735962909e-12 1.5580425394e-07 3.4354264479e-07 4.3208185075e-07 3.4358321652e-07 2.0808677638e-10 -4.3473858455e-08 -2.5599434314e-07 -1.7225655193e-07 
-8.2317527996e-08 -2.7623431449e-07 -4.2435125672e-07 -1.9701270001e-07 5.0607256083e-08 -3.6665488034e-08 -1.6206628153e-07 -2.8830473561e-08 5.103753271e-08 
-2.3446666587e-07 -5.6274336897e-07 -6.1119287629e-07 -4.2756294566e-07 -5.9601334952e-08 2.4187854876e-07 2.2606329839e-07 9.2615856129e-08 4.1199164186e-08 
4.4420484701e-08 7.4887079816e-08 6.1768761842e-08 -6.5764656913e-08 -1.7389324045e-07 -1.2879705276e-07 -1.3050607383e-09 1.3775376871e-07 2.555549922e-07 
3.1927416636e-07 2.469262349e-07 -4.3473858455e-08 -1.8022138742e-10 -8.4212985699e-10 3.201560873e-08 -1.3568538273e-09 -2.0070936573e-07 -3.4082120475e-07 
-1.9647164868e-07 2.4160816526e-09 2.5918765382e-08 1.8094016174e-09 5.7860989466e-08 2.4281510594e-09 -3.5613449147e-07 -6.8035282469e-07 -6.3275273516e-07 
-3.4085994626e-07 6.7799818651e-08 3.4215288462e-07 2.3112557671e-07 2.4086984329e-09 -7.630694666e-08 1.3284313069e-09 2.4166462221e-07 3.4211460386e-07 
9.1354081426e-11 -3.3977968305e-07 -2.3287306343e-07 1.0370485524e-09 4.2176488521e-08 3.0771110355e-09 -3.7292293419e-09 1.8281117349e-09 -1.8022138742e-10 
1.0884794235e-08 4.75583399e-08 1.7415986839e-07 2.0508936552e-07 -4.5253182886e-08 -3.3463956627e-07 -4.2084157405e-07 -4.0626012114e-07 -3.9329612244e-07 
-3.7740745138e-07 -3.540519814e-07 -4.0781491671e-07 -6.2328146154e-07 -7.6981502454e-07 -6.1677901436e-07 -3.3025812603e-07 -7.633705461e-08 1.7649271237e-08 
-1.7563407717e-07 -3.9123905462e-07 -3.6421761592e-07 -2.1370451311e-07 -5.8834498206e-08 -2.2625880398e-08 -2.2809696887e-07 -4.1209252152e-07 -3.1145729626e-07 
-1.8793020111e-07 -3.032501441e-07 -4.4533054021e-07 -4.0208480442e-07 -2.3088800389e-07 1.0884794235e-08 5.8429632629e-11 4.9920955593e-11 2.1446662084e-07 
3.3632239311e-07 5.8631101587e-08 -3.3670992307e-07 -5.6780335019e-07 -6.7349762393e-07 -6.9264118846e-07 -6.7382694628e-07 -6.6564779993e-07 -6.7355730952e-07 
-7.0300903518e-07 -6.7536753136e-07 -5.1199735252e-07 -3.3655948643e-07 -2.7271492089e-07 -3.348304722e-07 -5.3727295666e-07 -6.7251090984e-07 -5.3301286729e-07 
-3.3701092631e-07 -3.0273718415e-07 -3.3769415191e-07 -3.4938434068e-07 -3.380301082e-07 -3.0385381221e-07 -3.3636431596e-07 -5.2507048271e-07 -6.7365428678e-07 
-5.8579770253e-07 -3.3629528028e-07 5.8429632629e-11 -8.2146216273e-10 1.834566186e-08 1.5931598162e-07 2.2797036243e-07 3.0189669581e-08 -2.298196645e-07 
-3.4785120738e-07 -3.6290236014e-07 -3.1397052388e-07 -2.7260918783e-07 -3.1037184124e-07 -3.5730170593e-07 -3.4344200371e-07 -3.0166953232e-07 -2.6486108949e-07 
-2.4370571732e-07 -2.4889245787e-07 -2.9768072284e-07 -4.0732992389e-07 -4.6081006967e-07 -3.4109116883e-07 -1.5872063974e-07 -2.4245900783e-08 2.8878712726e-08 
-3.2801134519e-08 -1.2737798435e-07 -1.7294437859e-07 -2.149498962e-07 -2.9884411611e-07 -3.6562162937e-07 -3.5627702698e-07 -2.4371030568e-07 -8.2146216273e-10 
7.4646642048e-11 1.4424660422e-09 2.0814991892e-09 2.935673785e-09 4.9489175313e-09 -3.9589731064e-09 -3.5868201663e-08 -1.0944767494e-09 1.9004649302e-07 
3.2463413529e-07 1.8974787771e-07 -8.2608018781e-10 -3.3301538832e-08 -9.5408249153e-10 2.9407045718e-09 -4.6187922562e-09 -6.634187589e-09 -4.5572259449e-09 
1.6034815781e-10 -5.9165309087e-09 -3.6222928772e-08 4.9644108621e-10 1.9549686519e-07 3.3245597057e-07 1.9505138428e-07 4.2588751308e-10 -3.4277738512e-08 
-2.0894505803e-09 3.9607945303e-09 -1.6508684872e-09 -4.4483049389e-09 -4.0127286281e-09 7.4646642048e-11 -6.9788192412e-09 -1.5420724058e-07 -2.3929899377e-07 
-1.8422753673e-07 8.9033672606e-08 2.7208096627e-07 5.651067629e-08 -1.1058356391e-07 2.1789187912e-07 5.1535147301e-07 2.5520968538e-07 -1.3057637579e-07 
-2.1004960255e-07 -8.6281799917e-08 1.376552271e-07 3.2116069499e-07 3.2363382023e-07 2.8362942048e-07 3.3970231337e-07 3.2972947466e-07 9.1587880089e-08 
-1.5234289378e-07 -1.7968327042e-07 -1.2930312872e-07 -1.400723476e-07 -1.2752350042e-07 -7.1891605537e-09 7.8677187013e-08 -1.2177942694e-08 -6.3837327102e-08 
1.3961625636e-07 2.6847252116e-07 -6.9788192412e-09 -4.2994829162e-10 -3.2086711421e-07 -4.4066046056e-07 -3.2061035345e-07 7.8482841001e-08 3.2587255824e-07 
-9.187766286e-09 -3.2189989795e-07 -7.4656021161e-09 3.280824976e-07 7.8711777592e-08 -3.2303358227e-07 -4.4460940211e-07 -3.1968334329e-07 1.8076932801e-08 
3.286539138e-07 3.7203008733e-07 3.2573095746e-07 3.6728202829e-07 3.2701451559e-07 3.5259635155e-08 -3.224164012e-07 -5.6044738165e-07 -6.42952853e-07 
-5.3405236204e-07 -3.2053707447e-07 -8.9198155991e-08 2.6046622916e-09 -2.0248835073e-07 -3.1912129857e-07 3.8061715231e-08 3.2548429666e-07 -4.2994829162e-10 
2.7226322315e-08 -3.6242854708e-07 -4.844105439e-07 -4.0129443387e-07 -1.7565498273e-07 -7.5361321895e-09 -9.6981823948e-08 -2.1848903992e-07 -1.4655476203e-07 
-3.7845815743e-08 -4.9029026519e-08 -1.477510004e-07 -3.0165834341e-07 -4.0518071402e-07 -3.5274777069e-07 -2.1967143345e-07 -8.1263622319e-08 1.0586859945e-08 
3.9912105791e-09 -5.3987240165e-08 -1.1628516203e-07 -2.0785106112e-07 -3.5363344351e-07 -4.6646392333e-07 -4.591741147e-07 -3.692260954e-07 -2.3408194318e-07 
-1.794786364e-07 -3.311531534e-07 -4.3196323297e-07 -2.2476661393e-07 1.8831604305e-08 2.7226322315e-08 1.7710515926e-09 -3.1517070841e-07 -3.6620791156e-07 
-3.1824898263e-07 -3.382023464e-07 -3.1232553466e-07 -1.2687607919e-07 -2.8261108367e-09 -1.6114776046e-07 -3.1162947604e-07 -1.6405970556e-07 1.7497441869e-09 
-9.401293362e-08 -3.1716795804e-07 -5.3353554813e-07 -6.2807130464e-07 -4.8573082834e-07 -3.1092385414e-07 -3.0806011697e-07 -3.1471783113e-07 -1.6847521088e-07 
-2.6711247495e-09 4.9355558765e-08 -6.9827055642e-09 -1.6627346296e-07 -3.1526974277e-07 -3.4072457432e-07 -3.1309911522e-07 -3.0285452304e-07 -3.1869580032e-07 
-3.6932794958e-07 -3.1056699191e-07 1.7710515926e-09 -1.3358460663e-07 -2.2326572183e-07 -1.1435694025e-07 -1.302773387e-08 -1.2544757465e-07 -2.1571717661e-07 
-4.793725372e-08 9.6244693122e-08 -6.4818836959e-08 -2.8219946995e-07 -3.0696883184e-07 -2.2656384616e-07 -1.2842143642e-07 -8.5916691782e-08 -1.7242470141e-07 
-2.8686668173e-07 -3.2816384919e-07 -2.9394254114e-07 -1.818290949e-07 -5.5330803375e-08 2.2045040572e-08 9.3665390191e-08 2.0289719873e-07 2.2031777481e-07 
1.6504427048e-08 -2.2161757639e-07 -3.0712296731e-07 -2.5774150281e-07 -9.1202939976e-08 -5.5917232456e-09 -1.9899229707e-07 -3.4909360902e-07 -1.3358460663e-07 
-3.0129907038e-07 -5.059455689e-09 2.2358285681e-07 2.993637427e-07 1.3701907757e-07 -3.1869062072e-09 1.3901002373e-07 2.9888696045e-07 2.1172099701e-07 
-6.1268225705e-09 -2.3829545426e-07 -3.0593417451e-07 -3.0192259779e-08 2.963077933e-07 3.8094348809e-07 2.9460363365e-07 1.0817703906e-07 -6.3395048734e-09 
1.2305079265e-07 2.9911812097e-07 3.2463266943e-07 2.9884024591e-07 3.209866583e-07 3.0286992094e-07 1.5628804821e-07 -5.0296056299e-09 -6.7353686311e-08 
-5.6838569533e-09 2.0498021932e-07 2.9949841853e-07 1.2730616673e-08 -3.0448220628e-07 -3.0129907038e-07 -3.554686264e-07 2.8955362887e-07 4.752881872e-07 
3.6457219016e-07 1.2024277931e-07 1.4990848377e-08 3.2150729107e-07 6.3256943858e-07 5.4095462209e-07 2.9457440264e-07 1.413403413e-07 1.5554172757e-07 
4.1146785094e-07 6.4470155077e-07 5.908256664e-07 4.2926489901e-07 3.3944394977e-07 2.9557483627e-07 2.7186957613e-07 3.2342587591e-07 5.053414422e-07 
6.3278917849e-07 5.2094198827e-07 3.4807952203e-07 2.9248143025e-07 2.8941321755e-07 2.7414038855e-07 2.924907422e-07 3.9029207747e-07 3.639386902e-07 
9.8248762125e-09 -3.4049551311e-07 -3.554686264e-07 0 0 1.4062895784e-10 0 -8.4377374702e-10 2.0679515314e-25 
4.9220135243e-09 1.6543612251e-24 -2.8688307399e-08 6.6174449004e-24 1.6720783087e-07 2.938367498e-07 2.0078832141e-07 0 -1.9659076011e-07 
-2.938367498e-07 -1.9659075998e-07 -6.6174449004e-24 2.0078832079e-07 2.938367498e-07 1.6720783446e-07 -1.7991178323e-23 -2.8688328307e-08 -3.9808066979e-24 
4.9221353866e-09 1.6155871339e-25 -8.444840124e-10 1.6155871339e-26 1.4476868784e-10 -6.0584517521e-28 -2.412811464e-11 0 0 

theta 1 1089 double
273 273 273 273 273 273 273 273 273 
273 273 273 273 273 273 273 273 273 
273 273 273 273 273 273 273 273 273 
273 273 273 273 273 273 277.92872382 277.92872382 277.92872382 
277.92872382 277.92872382 277.92872382 277.92872382 277.92872382 277.92872382 277.92872382 277.92872382 277.92872382 
277.92872382 277.92872382 277.92872382 277.92872382 277.92872382 277.92872382 277.92872382 277.92872382 277.92872382 
277.92872382 277.92872382 277.92872382 277.92872382 277.92872382 277.92872382 277.92872382 277.92872382 277.92872382 
277.92872382 277.92872382 277.92872382 282.70334686 282.70334686 282.70334686 282.70334686 282.70334686 282.70334686 
282.70334686 282.70334686 282.70334686 282.70334686 282.70334686 282.70334686 282.70334686 282.70334686 282.70334686 
282.70334686 282.70334686 282.70334686 282.70334686 282.70334686 282.70334686 282.70334686 282.70334686 282.70334686 
282.70334686 282.70334686 282.70334686 282.70334686 282.70334686 282.70334686 282.70334686 282.70334686 282.70334686 
287.29855153 287.29855153 287.29855153 287.29855153 287.29855153 287.29855153 287.29855153 287.29855153 287.29855153 
287.29855153 287.29855153 287.29855153 287.29855153 287.29855153 287.29855153 287.29855153 287.29855153 287.29855153 
287.29855153 287.29855153 287.29855153 287.29855153 287.29855153 287.29855153 287.29855153 287.29855153 287.29855153 
287.29855153 287.29855153 287.29855153 287.29855153 287.29855153 287.29855153 291.68860303 291.68860303 291.68860303 
291.68860303 291.68860303 291.68860303 291.68860303 291.68860303 291.68860303 291.68860303 291.68860303 291.68860303 
291.68860303 291.68860303 291.68860303 291.68860303 291.68860303 291.68860303 291.68860303 291.68860303 291.68860303 
291.68860303 291.68860303 291.68860303 291.68860303 291.68860303 291.68860303 291.68860303 291.68860303 291.68860303 
291.68860303 291.68860303 291.68860303 295.84763352 295.84763352 295.84763352 295.84763352 295.84763352 295.84763352 
295.84763352 295.84763352 295.84763352 295.84763352 295.84763352 295.84763352 295.84763352 295.84763352 295.84763352 
295.84763352 295.84763352 295.84763352 295.84763352 295.84763352 295.84763352 295.84763352 295.84763352 295.84763352 
295.84763352 295.84763352 295.84763352 295.84763352 295.84763352 295.84763352 295.84763352 295.84763352 295.84763352 
299.74995669 299.74995669 299.74995669 299.74995669 299.74995669 299.74995669 299.74995669 299.74995669 299.74995669 
299.74995669 299.74995669 299.74995669 299.74995669 299.74995669 299.74995669 299.74995669 299.74995669 299.74995669 
299.74995669 299.74995669 299.74995669 299.74995669 299.74995669 299.74995669 299.74995669 299.74995669 299.74995669 
299.74995669 299.74995669 299.74995669 299.74995669 299.74995669 299.74995669 303.37040752 303.37040752 303.37040752 
303.37040752 303.37040752 303.37040752 303.37040752 303.37040752 303.37040752 303.37040752 303.37040752 303.37040752 
303.37040752 303.37040752 303.37040752 303.37040752 303.37040752 303.37040752 303.37040752 303.37040752 303.37040752 
303.37040752 303.37040752 303.37040752 303.37040752 303.37040752 303.37040752 303.37040752 303.37040752 303.37040752 
303.37040752 303.37040752 303.37040752 306.68470096 306.68470096 306.68470096 306.68470096 306.68470096 306.68470096 
306.68470096 306.68470096 306.68470096 306.68470096 306.68470096 306.68470096 306.68470096 306.68470096 306.68470096 
306.68470096 306.68470096 306.68470096 306.68470096 306.68470096 306.68470096 306.68470096 306.68470096 306.68470096 
306.68470096 306.68470096 306.68470096 306.68470096 306.68470096 306.68470096 306.68470096 306.68470096 306.68470096 
309.66980131 309.66980131 309.66980131 309.66980131 309.66980131 309.66980131 309.66980131 309.66980131 309.66980131 
309.66980131 309.66980131 309.66980131 309.66980131 309.66980131 309.66980131 309.66980131 309.66980131 309.66980131 
309.66980131 309.66980131 309.66980131 309.66980131 309.66980131 309.66980131 309.66980131 309.66980131 309.66980131 
309.66980131 309.66980131 309.66980131 309.66980131 309.66980131 309.66980131 312.30429323 312.30429323 312.30429323 
312.30429323 312.30429323 312.30429323 312.30429323 312.30429323 312.30429323 312.30429323 312.30429323 312.30429323 
312.30429323 312.30429323 312.30429323 312.30429323 312.30429323 312.30429323 312.30429323 312.30429323 312.30429323 
312.30429323 312.30429323 312.30429323 312.30429323 312.30429323 312.30429323 312.30429323 312.30429323 312.30429323 
312.30429323 312.30429323 312.30429323 314.56874417 314.56874417 314.56874417 314.56874417 314.56874417 314.56874417 
314.56874417 314.56874417 314.56874417 314.56874417 314.56874417 314.56874417 314.56874417 314.56874417 314.56874417 
314.56874417 314.56874417 314.56874417 314.56874417 314.56874417 314.56874417 314.56874417 314.56874417 314.56874417 
314.56874417 314.56874417 314.56874417 314.56874417 314.56874417 314.56874417 314.56874417 314.56874417 314.56874417 
316.44604755 316.44604755 316.44604755 316.44604755 316.44604755 316.44604755 316.44604755 316.44604755 316.44604755 
316.44604755 316.44604755 316.44604755 316.44604755 316.44604755 316.44604755 316.44604755 316.44604755 316.44604755 
316.44604755 316.44604755 316.44604755 316.44604755 316.44604755 316.44604755 316.44604755 316.44604755 316.44604755 
316.44604755 316.44604755 316.44604755 316.44604755 316.44604755 316.44604755 317.92173589 317.92173589 317.92173589 
317.92173589 317.92173589 317.92173589 317.92173589 317.92173589 317.92173589 317.92173589 317.92173589 317.92173589 
317.92173589 317.92173589 317.92173589 317.92173589 317.92173589 317.92173589 317.92173589 317.92173589 317.92173589 
317.92173589 317.92173589 317.92173589 317.92173589 317.92173589 317.92173589 317.92173589 317.92173589 317.92173589 
317.92173589 317.92173589 317.92173589 318.98425361 318.98425361 318.98425361 318.98425361 318.98425361 318.98425361 
318.98425361 318.98425361 318.98425361 318.98425361 318.98425361 318.98425361 318.98425361 318.98425361 318.98425361 
318.98425361 318.98425361 318.98425361 318.98425361 318.98425361 318.98425361 318.98425361 318.98425361 318.98425361 
318.98425361 318.98425361 318.98425361 318.98425361 318.98425361 318.98425361 318.98425361 318.98425361 318.98425361 
319.62518006 319.62518006 319.62518006 319.62518006 319.62518006 319.62518006 319.62518006 319.62518006 319.62518006 
319.62518006 319.62518006 319.62518006 319.62518006 319.62518006 319.62518006 319.62518006 319.62518006 319.62518006 
319.62518006 319.62518006 319.62518006 319.62518006 319.62518006 319.62518006 319.62518006 319.62518006 319.62518006 
319.62518006 319.62518006 319.62518006 319.62518006 319.62518006 319.62518006 319.83939494 319.83939494 319.83939494 
319.83939494 319.83939494 319.83939494 319.83939494 319.83939494 319.83939494 319.83939494 319.83939494 319.83939494 
319.83939494 319.83939494 319.83939494 319.83939494 319.83939494 319.83939494 319.83939494 319.83939494 319.83939494 
319.83939494 319.83939494 319.83939494 319.83939494 319.83939494 319.83939494 319.83939494 319.83939494 319.83939494 
319.83939494 319.83939494 319.83939494 319.62518006 319.62518006 319.62518006 319.62518006 319.62518006 319.62518006 
319.62518006 319.62518006 319.62518006 319.62518006 319.62518006 319.62518006 319.62518006 319.62518006 319.62518006 
319.62518006 319.62518006 319.62518006 319.62518006 319.62518006 319.62518006 319.62518006 319.62518006 319.62518006 
319.62518006 319.62518006 319.62518006 319.62518006 319.62518006 319.62518006 319.62518006 319.62518006 319.62518006 
318.98425361 318.98425361 318.98425361 318.98425361 318.98425361 318.98425361 318.98425361 318.98425361 318.98425361 
318.98425361 318.98425361 318.98425361 318.98425361 318.98425361 318.98425361 318.98425361 318.98425361 318.98425361 
318.98425361 318.98425361 318.98425361 318.98425361 318.98425361 318.98425361 318.98425361 318.98425361 318.98425361 
318.98425361 318.98425361 318.98425361 318.98425361 318.98425361 318.98425361 317.92173589 317.92173589 317.92173589 
317.92173589 317.92173589 317.92173589 317.92173589 317.92173589 317.92173589 317.92173589 317.92173589 317.92173589 
317.92173589 317.92173589 317.92173589 317.92173589 317.92173589 317.92173589 317.92173589 317.92173589 317.92173589 
317.92173589 317.92173589 317.92173589 317.92173589 317.92173589 317.92173589 317.92173589 317.92173589 317.92173589 
317.92173589 317.92173589 317.92173589 316.44604755 316.44604755 316.44604755 316.44604755 316.44604755 316.44604755 
316.44604755 316.44604755 316.44604755 316.44604755 316.44604755 316.44604755 316.44604755 316.44604755 316.44604755 
316.44604755 316.44604755 316.44604755 316.44604755 316.44604755 316.44604755 316.44604755 316.44604755 316.44604755 
316.44604755 316.44604755 316.44604755 316.44604755 316.44604755 316.44604755 316.44604755 316.44604755 316.44604755 
314.56874417 314.56874417 314.56874417 314.56874417 314.56874417 314.56874417 314.56874417 314.56874417 314.56874417 
314.56874417 314.56874417 314.56874417 314.56874417 314.56874417 314.56874417 314.56874417 314.56874417 314.56874417 
314.56874417 314.56874417 314.56874417 314.56874417 314.56874417 314.56874417 314.56874417 314.56874417 314.56874417 
314.56874417 314.56874417 314.56874417 314.56874417 314.56874417 314.56874417 312.30429323 312.30429323 312.30429323 
312.30429323 312.30429323 312.30429323 312.30429323 312.30429323 312.30429323 312.30429323 312.30429323 312.30429323 
312.30429323 312.30429323 312.30429323 312.30429323 312.30429323 312.30429323 312.30429323 312.30429323 312.30429323 
312.30429323 312.30429323 312.30429323 312.30429323 312.30429323 312.30429323 312.30429323 312.30429323 312.30429323 
312.30429323 312.30429323 312.30429323 309.66980131 309.66980131 309.66980131 309.66980131 309.66980131 309.66980131 
309.66980131 309.66980131 309.66980131 309.66980131 309.66980131 309.66980131 309.66980131 309.66980131 309.66980131 
309.66980131 309.66980131 309.66980131 309.66980131 309.66980131 309.66980131 309.66980131 309.66980131 309.66980131 
309.66980131 309.66980131 309.66980131 309.66980131 309.66980131 309.66980131 309.66980131 309.66980131 309.66980131 
306.68470096 306.68470096 306.68470096 306.68470096 306.68470096 306.68470096 306.68470096 306.68470096 306.68470096 
306.68470096 306.68470096 306.68470096 306.68470096 306.68470096 306.68470096 306.68470096 306.68470096 306.68470096 
306.68470096 306.68470096 306.68470096 306.68470096 306.68470096 306.68470096 306.68470096 306.68470096 306.68470096 
306.68470096 306.68470096 306.68470096 306.68470096 306.68470096 306.68470096 303.37040752 303.37040752 303.37040752 
303.37040752 303.37040752 303.37040752 303.37040752 303.37040752 303.37040752 303.37040752 303.37040752 303.37040752 
303.37040752 303.37040752 303.37040752 303.37040752 303.37040752 303.37040752 303.37040752 303.37040752 303.37040752 
303.37040752 303.37040752 303.37040752 303.37040752 303.37040752 303.37040752 303.37040752 303.37040752 303.37040752 
303.37040752 303.37040752 303.37040752 299.74995669 299.74995669 299.74995669 299.74995669 299.74995669 299.74995669 
299.74995669 299.74995669 299.74995669 299.74995669 299.74995669 299.74995669 299.74995669 299.74995669 299.74995669 
299.74995669 299.74995669 299.74995669 299.74995669 299.74995669 299.74995669 299.74995669 299.74995669 299.74995669 
299.74995669 299.74995669 299.74995669 299.74995669 299.74995669 299.74995669 299.74995669 299.74995669 299.74995669 
295.84763352 295.84763352 295.84763352 295.84763352 295.84763352 295.84763352 295.84763352 295.84763352 295.84763352 
295.84763352 295.84763352 295.84763352 295.84763352 295.84763352 295.84763352 295.84763352 295.84763352 295.84763352 
295.84763352 295.84763352 295.84763352 295.84763352 295.84763352 295.84763352 295.84763352 295.84763352 295.84763352 
295.84763352 295.84763352 295.84763352 295.84763352 295.84763352 295.84763352 291.68860303 291.68860303 291.68860303 
291.68860303 291.68860303 291.68860303 291.68860303 291.68860303 291.68860303 291.68860303 291.68860303 291.68860303 
291.68860303 291.68860303 291.68860303 291.68860303 291.68860303 291.68860303 291.68860303 291.68860303 291.68860303 
291.68860303 291.68860303 291.68860303 291.68860303 291.68860303 291.68860303 291.68860303 291.68860303 291.68860303 
291.68860303 291.68860303 291.68860303 287.29855153 287.29855153 287.29855153 287.29855153 287.29855153 287.29855153 
287.29855153 287.29855153 287.29855153 287.29855153 287.29855153 287.29855153 287.29855153 287.29855153 287.29855153 
287.29855153 287.29855153 287.29855153 287.29855153 287.29855153 287.29855153 287.29855153 287.29855153 287.29855153 
287.29855153 287.29855153 287.29855153 287.29855153 287.29855153 287.29855153 287.29855153 287.29855153 287.29855153 
282.70334686 282.70334686 282.70334686 282.70334686 282.70334686 282.70334686 282.70334686 282.70334686 282.70334686 
282.70334686 282.70334686 282.70334686 282.70334686 282.70334686 282.70334686 282.70334686 282.70334686 282.70334686 
282.70334686 282.70334686 282.70334686 282.70334686 282.70334686 282.70334686 282.70334686 282.70334686 282.70334686 
282.70334686 282.70334686 282.70334686 282.70334686 282.70334686 282.70334686 277.92872382 277.92872382 277.92872382 
277.92872382 277.92872382 277.92872382 277.92872382 277.92872382 277.92872382 277.92872382 277.92872382 277.92872382 
277.92872382 277.92872382 277.92872382 277.92872382 277.92872382 277.92872382 277.92872382 277.92872382 277.92872382 
277.92872382 277.92872382 277.92872382 277.92872382 277.92872382 277.92872382 277.92872382 277.92872382 277.92872382 
277.92872382 277.92872382 277.92872382 273 273 273 273 273 273 
273 273 273 273 273 273 273 273 273 
273 273 273 273 273 273 273 273 273 
273 273 273 273 273 273 273 273 273 

von%20Mises%20stress 1 1089 double
0 0 1.598056339e-11 0 -9.5883380343e-11 2.5849394142e-26 5.5931971867e-10 2.0679515314e-25 -3.2600349317e-09 
8.2718061255e-25 1.9000889871e-08 3.1482508908e-08 1.5184731334e-08 8.2718061255e-25 1.5820757755e-08 3.1482508908e-08 1.5820757769e-08 -2.4815418377e-24 
1.5184731264e-08 3.1482508908e-08 1.9000890279e-08 -1.3700178895e-24 -3.2600373076e-09 -3.2634860105e-25 5.5933356665e-10 2.8272774843e-26 -9.5964092318e-11 
3.1302000719e-27 1.6450987255e-11 2.271919407e-28 -2.7418312091e-12 0 0 3.808505405e-08 3.7127619425e-08 3.6975474296e-08 
3.7462034431e-08 3.8420715597e-08 3.8439967031e-08 3.6108237972e-08 3.000128463e-08 1.8694863216e-08 6.7187845896e-09 -1.3971403892e-09 -5.0832450771e-09 
-3.769862831e-09 -1.3898560841e-09 -1.8760872698e-09 1.6250057819e-09 1.5966985241e-08 3.0314666578e-08 3.3832865265e-08 3.3405329358e-08 3.5915806912e-08 
3.7374434869e-08 3.3791350169e-08 3.0320907672e-08 3.2117462235e-08 3.6726892628e-08 4.1695077616e-08 3.8020191945e-08 1.6700410358e-08 1.6738175272e-11 
1.0250180718e-08 2.9054899004e-08 3.808505405e-08 3.2282228253e-08 3.2485769391e-08 3.1944040647e-08 3.2414676066e-08 3.5655309694e-08 3.2206777261e-08 
1.2609914495e-08 -3.2474973655e-10 1.6213313431e-08 3.2897160274e-08 2.039984707e-08 1.1712036309e-10 -6.5552733055e-09 2.9546966725e-10 2.0582152884e-08 
3.3016520004e-08 1.6310314686e-08 -3.9137164147e-10 1.2056552448e-08 3.231356417e-08 3.9039140738e-08 3.2433298867e-08 1.2696055271e-08 -3.9269843635e-10 
1.2946929361e-08 3.2570959948e-08 3.833541461e-08 3.2296017295e-08 1.6508491951e-08 -3.5583706359e-12 -8.2165306182e-09 -1.2355750573e-10 3.2282228253e-08 
1.4322850898e-08 2.9820651966e-08 3.1491079056e-08 2.5895294911e-08 1.9594462274e-08 1.0156888991e-08 -4.84911709e-09 -7.6619209891e-09 1.9480112275e-08 
4.2266389606e-08 2.6386317909e-08 3.3872780903e-09 4.8166510594e-09 2.0573556034e-08 4.0557112231e-08 4.5777312428e-08 1.7244149401e-08 -1.1340392405e-08 
-6.2743285448e-09 1.2973614293e-08 2.6934709422e-08 2.6923536928e-08 4.2546769013e-09 -1.1413650248e-08 9.5767758928e-09 3.4524375585e-08 3.0727569092e-08 
1.5084201067e-08 4.4921161607e-09 -1.9647238677e-10 1.8706486623e-09 7.7061871448e-09 1.4322850898e-08 -1.9036929875e-10 3.3730638909e-08 4.2390921229e-08 
3.3966507183e-08 1.6633426294e-08 5.9956526655e-11 -6.0856241521e-09 1.0695440722e-10 2.0547962355e-08 3.3336232797e-08 1.6570598841e-08 -9.7547129994e-11 
1.2983187269e-08 3.3616014408e-08 3.9604146655e-08 3.3231256058e-08 1.6781014662e-08 3.2798772775e-10 -6.053259487e-09 -3.3070210912e-12 2.0837265087e-08 
3.3904721805e-08 1.6635328103e-08 3.323896715e-10 1.6299212202e-08 3.3447999863e-08 2.0690956823e-08 -2.3611758298e-10 -7.5974240216e-09 1.1805703818e-11 
2.399633979e-08 3.4035755651e-08 -1.9036929875e-10 -2.9592341474e-09 3.7988346611e-08 5.7987493221e-08 5.8545008961e-08 4.1167697108e-08 1.8589769692e-08 
3.5454387433e-09 -1.0251851122e-09 7.8180087501e-09 1.4916271301e-08 5.1108535105e-09 -4.1865679253e-09 4.4356836889e-09 1.5646261067e-08 1.4113816923e-08 
1.0219747751e-08 1.4345450048e-08 1.8513231507e-08 1.474539982e-08 1.6756367963e-08 3.8260548911e-08 5.4304166735e-08 3.9933445505e-08 1.8815373365e-08 
1.4616938459e-08 1.422141884e-08 4.5120925576e-09 -6.099317795e-09 -9.2010896265e-09 8.1032323154e-10 2.9538466948e-08 4.0457296247e-08 -2.9592341474e-09 
4.8111328101e-11 3.4403101229e-08 5.9466377256e-08 6.9014429207e-08 5.6823746876e-08 3.4611258386e-08 1.4093891858e-08 1.2888133909e-10 -2.4265391234e-09 
-1.6520227462e-10 3.2005914039e-10 1.7954721421e-10 5.6356403947e-10 -2.5971861375e-11 -3.0871419659e-09 3.9104693268e-11 1.8011819083e-08 3.4789647959e-08 
3.4331238073e-08 3.4676552884e-08 5.3865555845e-08 6.9220333807e-08 5.8062973617e-08 3.4774978137e-08 1.3737850227e-08 -5.2359497883e-11 -1.5996004219e-09 
2.0057105986e-10 -3.5474014477e-09 -3.9343430425e-11 2.3528919626e-08 3.4457900339e-08 4.8111328101e-11 9.13104602e-10 1.7988816035e-08 3.2998082303e-08 
3.9192318211e-08 2.9822938563e-08 1.8221175481e-08 1.7718261084e-08 1.7341144835e-08 6.1167761924e-09 -2.2001062779e-09 6.1452359895e-09 1.8234643185e-08 
2.1149955499e-08 1.8954462285e-08 1.5711452897e-08 1.8036365028e-08 3.2544636374e-08 4.2541765274e-08 3.1333250071e-08 2.2761351552e-08 4.0668330504e-08 
6.0296847655e-08 5.6889563735e-08 4.1355709e-08 2.4604513705e-08 1.3844319472e-08 1.6283467923e-08 1.7696612031e-08 3.858404772e-09 -3.1809195853e-09 
1.862887323e-08 3.2317106773e-08 9.13104602e-10 -1.429815668e-11 -2.0689463271e-10 2.284838553e-10 -4.4251031123e-10 -3.9542247509e-09 -1.0150840949e-10 
2.1320789767e-08 3.5538748286e-08 1.7778445653e-08 7.0277054455e-12 1.4191640279e-08 3.552675361e-08 3.9206837936e-08 3.5380006167e-08 3.4194371214e-08 
3.5457517063e-08 3.89770277e-08 3.5150853182e-08 1.4376943567e-08 -2.693910867e-10 1.4287159278e-08 3.4969822587e-08 3.8701826769e-08 3.5196038727e-08 
3.4165325367e-08 3.5595177491e-08 3.9471085898e-08 3.5562654026e-08 1.3639485309e-08 1.2118445667e-10 2.142735618e-08 3.5426146602e-08 -1.429815668e-11 
-5.5325091235e-10 -7.1380326199e-09 -1.2851494589e-08 -1.3071831961e-08 -3.1772398762e-09 1.3145238021e-08 3.2208558087e-08 3.8296642283e-08 1.569341257e-08 
-2.6655727845e-09 1.6155244488e-08 3.8046377004e-08 2.889833738e-08 1.3329316942e-08 1.5957507015e-08 2.3091273147e-08 2.1038980883e-08 1.2336246758e-08 
-4.8131269494e-10 -8.2455931849e-09 -1.78849042e-09 8.5774152384e-09 1.2539543429e-08 1.6935374685e-08 2.8602389541e-08 4.0659310642e-08 4.6224860638e-08 
4.2378582444e-08 2.6200018975e-08 1.6861651806e-08 3.3535962508e-08 3.9853983973e-08 -5.5325091235e-10 1.1217974231e-11 1.3496567168e-10 -2.6964675711e-09 
2.1944014558e-10 1.7585210721e-08 3.6209009867e-08 4.2899003294e-08 3.600837827e-08 1.3890322062e-08 8.7125151191e-11 1.8141078016e-08 3.6011044723e-08 
2.1655889337e-08 5.8806257178e-11 -3.7970101183e-09 -2.1528151709e-10 5.0027033303e-10 -9.7174307065e-12 -1.0460767108e-10 1.4266474452e-10 6.5916494869e-10 
2.994856362e-11 -3.1599287885e-09 -1.350711247e-10 1.7879917538e-08 3.595845383e-08 3.9173954382e-08 3.5890063342e-08 3.4470424857e-08 3.6188833805e-08 
4.2319085061e-08 3.5910204494e-08 1.1217974231e-11 1.2953120241e-09 1.9191473537e-08 2.3990949854e-08 2.5395018689e-08 3.3104957756e-08 4.1319792595e-08 
4.4238548746e-08 4.0026844556e-08 2.6850298373e-08 1.7911694424e-08 2.6413816938e-08 4.0096192239e-08 4.6698346651e-08 3.9767890366e-08 1.2852433576e-08 
-8.5737203063e-09 9.6373213147e-10 1.8498011656e-08 2.1062339033e-08 1.8618502933e-08 2.1128292024e-08 1.9457515107e-08 4.4719809854e-09 -3.731044825e-09 
1.4945703193e-08 3.4062301058e-08 2.7178824792e-08 1.8268980124e-08 3.1306472786e-08 4.4456219515e-08 3.5883137049e-08 1.7518932261e-08 1.2953120241e-09 
-2.0310843995e-11 3.6591292658e-08 4.2829091767e-08 3.6502209e-08 3.5419766875e-08 3.6453658113e-08 3.6475775434e-08 3.6423478527e-08 3.723412708e-08 
3.6601570164e-08 3.221965685e-08 3.6422941355e-08 6.1545977892e-08 7.3101444039e-08 3.6602017371e-08 9.6876897078e-11 1.1635201626e-08 3.6565231362e-08 
4.0235205907e-08 3.6603649155e-08 3.9629085002e-08 3.6558537431e-08 1.4639030426e-08 3.1135341448e-11 1.8895423533e-08 3.6517465255e-08 1.8182830762e-08 
-1.1721807791e-10 1.7608580602e-08 3.6391869973e-08 2.1264293206e-08 -9.8362724762e-11 -2.0310843995e-11 -4.6933696741e-09 4.0383495526e-08 3.4731695002e-08 
1.6768211806e-08 2.491002899e-08 3.5300488365e-08 2.408293174e-08 1.4060350577e-08 2.8035736338e-08 4.0882630057e-08 2.7474572766e-08 1.4041646584e-08 
2.6813933626e-08 4.1432517326e-08 3.3538481117e-08 1.9788375907e-08 1.6838752608e-08 2.2685179741e-08 3.5323225829e-08 4.3884918615e-08 3.7502285841e-08 
2.2738517494e-08 6.1568035597e-09 1.9507555817e-09 2.4313985102e-08 4.0466126969e-08 1.7626816031e-08 -8.0483647226e-09 -4.0383229995e-10 1.4007642461e-08 
8.633288721e-09 -2.3320098726e-09 -4.6933696741e-09 2.2464208629e-11 3.6767679596e-08 2.150160276e-08 -5.8349612016e-11 1.7805239165e-08 3.6791939209e-08 
1.8601320633e-08 -4.5429085411e-11 1.7572877529e-08 3.6765295435e-08 2.2840879594e-08 -4.5339835541e-11 -7.738332695e-09 -1.5445505625e-10 2.2789937009e-08 
3.6844360856e-08 1.7758333841e-08 -8.6647913235e-11 1.7690911716e-08 3.6750918805e-08 2.2753279431e-08 -8.6907372148e-11 -7.5545425704e-09 -9.3233919294e-12 
2.2189052935e-08 3.6767239476e-08 2.1451889294e-08 3.8472910316e-11 -3.6775391532e-09 -4.5195677433e-11 5.8645455731e-10 1.1108777253e-11 2.2464208629e-11 
2.2178550887e-08 3.4900926579e-08 2.6529215968e-08 1.7236834025e-08 2.7197195722e-08 3.714351877e-08 2.7809020882e-08 1.7645924875e-08 2.5106453565e-08 
3.4210432853e-08 2.8977688642e-08 1.764971541e-08 8.4680076384e-09 9.4287093367e-09 2.8527964514e-08 4.0134690762e-08 1.8617805668e-08 -4.0901276138e-09 
3.9434540707e-09 1.6780764043e-08 8.4840156264e-09 -5.2957178691e-09 -8.9073631318e-09 -4.0105231295e-09 7.7351991703e-09 1.9216967336e-08 2.3321944938e-08 
2.2778150773e-08 2.0313603642e-08 1.3285383053e-08 -9.4943148594e-10 -4.0864916496e-09 2.2178550887e-08 3.6932309167e-08 3.687906345e-08 3.6904067967e-08 
3.6937928631e-08 3.6911251358e-08 3.6882792584e-08 3.6911308749e-08 3.6934311992e-08 3.6889314455e-08 3.6875343027e-08 3.6991424598e-08 3.6934293893e-08 
3.6400685636e-08 3.6930832242e-08 4.0064966124e-08 3.6877617892e-08 1.8443318154e-08 1.4646090396e-11 -3.1558191197e-09 -2.7175841628e-11 4.4147755926e-10 
6.1760015493e-12 4.2295440382e-10 -2.3897365446e-11 -3.0500894378e-09 -1.804979845e-11 1.7709793567e-08 3.6928489696e-08 4.4433087626e-08 3.6903083496e-08 
1.1017973446e-08 -3.4774129441e-11 3.6932309167e-08 2.2178550887e-08 4.0907858614e-08 3.5049984023e-08 2.4766543425e-08 3.0219153126e-08 3.7103310619e-08 
3.1114513391e-08 2.5872289329e-08 3.4996166316e-08 4.3156659114e-08 3.5024282482e-08 2.5876079864e-08 3.0989094703e-08 4.0121807129e-08 4.3032697272e-08 
3.6279569492e-08 1.6420228151e-08 -2.0444180796e-09 -4.6134605284e-09 -8.2330421316e-10 -2.1035415168e-10 2.7088866615e-09 1.3417915232e-08 1.8594786332e-08 
4.9175547344e-09 -7.0819698398e-09 3.1280223306e-09 2.3178744266e-08 4.0701408988e-08 4.7887753818e-08 3.6929516082e-08 2.3226510273e-08 2.2178550887e-08 
2.2464208629e-11 3.6852408635e-08 2.1618692982e-08 4.7858521388e-11 1.7866446525e-08 3.6791372064e-08 1.8539550209e-08 7.060551393e-11 1.8344162532e-08 
3.6891483837e-08 1.9243832002e-08 7.0694763799e-11 1.4041559859e-08 3.6738972604e-08 4.3745478319e-08 3.678998356e-08 1.7601394884e-08 -5.7792750362e-11 
-2.4250843851e-09 4.2114656192e-11 -3.1136009503e-09 2.5999256875e-11 2.1379145739e-08 3.6770024315e-08 2.2022820801e-08 -6.4207626023e-11 -6.692803792e-09 
4.4123365712e-11 1.805366491e-08 3.69033731e-08 4.6160800197e-08 3.6856859475e-08 2.2464208629e-11 -4.6933696741e-09 1.8102186442e-08 3.7932961643e-09 
-1.0013916779e-08 1.428667134e-08 3.5419330184e-08 1.2108329416e-08 -1.4780856851e-08 -4.3827545001e-09 9.9137524044e-09 -5.2802201999e-09 -1.4799560844e-08 
1.6520841941e-08 5.0932007697e-08 5.0684955963e-08 3.5709653588e-08 2.5936067417e-08 1.6638748016e-08 3.0922459515e-09 -8.8281873488e-09 -1.3247300456e-08 
-5.4472419284e-09 1.9289839676e-08 3.9881868806e-08 3.5246769911e-08 1.7978970606e-08 6.7289850529e-10 -9.2323848203e-09 -4.2978178014e-09 7.4258008637e-09 
1.7887672477e-08 1.7157910983e-08 -4.6933696741e-09 -2.0310843995e-11 5.14205445e-11 -3.6203371165e-09 -1.6272088322e-10 2.1297132188e-08 3.6456960199e-08 
2.1014501252e-08 -2.9866400598e-10 -2.750954928e-09 -1.7969086859e-10 -6.4221911826e-09 -2.9920117792e-10 3.9368533838e-08 7.2855133517e-08 6.0434717513e-08 
3.6460032004e-08 3.5283823168e-08 3.6397227897e-08 1.9291383084e-08 -2.7152820152e-10 -6.5293228868e-09 -1.453931146e-10 1.8216868973e-08 3.6495586818e-08 
4.2628883863e-08 3.6402906262e-08 1.7603800166e-08 -1.5011673413e-10 -3.2405267483e-09 -2.220428536e-10 3.5072197278e-10 -6.7083585294e-11 -2.0310843995e-11 
1.2953120241e-09 -2.7398332758e-09 8.2454680872e-09 2.4016418086e-08 3.4338218693e-08 4.0894787286e-08 4.5370041242e-08 4.6011977063e-08 4.1068591249e-08 
3.5962612906e-08 3.6116771141e-08 4.6081324746e-08 7.0406532509e-08 8.4965149918e-08 6.562993246e-08 4.0559256303e-08 3.7911497617e-08 4.457817785e-08 
4.7450818449e-08 4.4175631894e-08 3.2398830665e-08 2.3098616836e-08 2.7253192481e-08 3.6945849583e-08 4.4259880124e-08 4.422539081e-08 3.1872488346e-08 
2.2503304626e-08 3.1419971546e-08 4.1092892898e-08 3.3992472475e-08 1.8074636707e-08 1.2953120241e-09 1.1217974231e-11 8.0331226447e-12 1.803300871e-08 
3.6107365301e-08 3.6252323464e-08 3.6192705619e-08 5.365333419e-08 7.2178794329e-08 7.5313671188e-08 7.1946819792e-08 7.0967095168e-08 7.2181460782e-08 
7.5396880105e-08 7.2379147673e-08 5.4894058023e-08 3.6181579324e-08 2.9481679745e-08 3.6217187227e-08 5.7810929712e-08 7.2156663379e-08 5.7148144409e-08 
3.611044184e-08 3.2368624713e-08 3.6071046309e-08 3.7366059908e-08 3.6214682244e-08 3.2577930049e-08 3.6052502438e-08 5.6235098525e-08 7.2134272683e-08 
6.2758579289e-08 3.6065175375e-08 1.1217974231e-11 -5.5325091235e-10 -2.2220367247e-09 7.6574269224e-09 1.7664417952e-08 1.6378214286e-08 1.4675021467e-08 
2.3431045035e-08 3.8160905743e-08 5.4379224343e-08 6.2300412438e-08 5.2138881633e-08 3.7910640465e-08 3.363169747e-08 3.1600021115e-08 2.4113579865e-08 
1.569631876e-08 1.0872182841e-08 1.389407936e-08 2.9014915567e-08 3.9610358723e-08 2.9056076085e-08 1.6878889732e-08 2.2605621739e-08 3.0069465107e-08 
2.3103612837e-08 1.3985985192e-08 1.4994502434e-08 2.277073172e-08 3.3956240207e-08 4.0467022171e-08 3.4219071891e-08 1.9212332989e-08 -5.5325091235e-10 
-1.429815668e-11 -1.4239738634e-10 -1.9729493069e-10 -7.6933593918e-12 5.9770475792e-10 -2.8201030262e-11 -3.5325111754e-09 1.0712364273e-10 2.0913052745e-08 
3.5602200412e-08 2.0891490929e-08 9.5128966819e-11 -3.4726808004e-09 9.2079195102e-11 6.9342652127e-10 2.0185517961e-11 -2.3881947498e-10 -2.8537674371e-11 
7.0608170296e-10 1.6124334965e-10 -3.4668480416e-09 -5.7490039879e-11 2.0510019786e-08 3.5087084833e-08 2.05251085e-08 -2.7634717288e-11 -3.4228703199e-09 
2.3599096759e-10 8.455384211e-10 1.7185980915e-10 -1.8957099728e-11 7.514607362e-12 -1.429815668e-11 9.13104602e-10 1.5312896204e-08 1.6494447164e-08 
1.2760066003e-08 1.241206124e-08 1.2760564858e-08 1.1115708839e-08 1.2299720379e-08 2.1134826669e-08 2.7695944711e-08 2.2057991506e-08 1.3193218729e-08 
1.0073878056e-08 9.696017848e-09 9.0556864644e-09 9.1631818873e-09 1.1028802098e-08 1.2324240747e-08 1.072119148e-08 8.4592123584e-09 7.7778614387e-09 
1.6620595361e-08 4.2930870764e-08 6.0217478397e-08 4.1989209007e-08 1.2300539408e-08 -4.7940535889e-09 -9.6381855865e-09 -2.575472189e-09 8.0470507685e-09 
1.3882347451e-08 1.2360878511e-08 9.13104602e-10 4.8111328101e-11 3.4302710825e-08 4.0203557717e-08 3.4338429062e-08 3.3295101918e-08 3.4301617703e-08 
3.4586017836e-08 3.4507542876e-08 3.4425433382e-08 3.4400743167e-08 3.4494526043e-08 3.4558208752e-08 3.4443218033e-08 3.4270055593e-08 3.4159223141e-08 
3.4097796548e-08 3.4072851687e-08 3.4265745427e-08 3.4857834635e-08 3.4294372654e-08 3.1020612825e-08 3.4560985926e-08 5.4439922735e-08 6.9424635325e-08 
5.8282335771e-08 3.4265452275e-08 1.0626413041e-08 -3.5496935833e-10 1.3601117648e-08 3.4280135797e-08 4.3467546824e-08 3.4333491683e-08 4.8111328101e-11 
-2.9592341474e-09 4.3653602907e-08 4.8981811968e-08 3.9320344327e-08 4.0964151275e-08 4.2046842599e-08 3.0702028084e-08 2.2355184387e-08 3.2431788163e-08 
4.163451399e-08 3.0666036444e-08 1.9193801573e-08 2.6885255429e-08 4.2357849005e-08 5.4229033295e-08 5.889920219e-08 5.2768749581e-08 4.4414947821e-08 
4.2415069262e-08 3.9739150357e-08 2.9357227559e-08 2.1254463263e-08 2.5416019868e-08 3.4985001131e-08 4.3104510814e-08 4.4420985617e-08 3.3580862245e-08 
2.4051617574e-08 2.9300728483e-08 4.0520961203e-08 4.8905081965e-08 3.9422035329e-08 -2.9592341474e-09 -1.9036929875e-10 3.4082323055e-08 3.9205203171e-08 
3.3750044956e-08 3.6288622315e-08 3.3937023495e-08 1.3811336742e-08 2.367058012e-10 1.7538274421e-08 3.4052906688e-08 1.8117466689e-08 3.2204263987e-11 
1.0097369251e-08 3.3916189215e-08 5.7091891721e-08 6.7386801393e-08 5.2563242852e-08 3.4093415188e-08 3.3449517487e-08 3.3719594114e-08 1.7991689432e-08 
2.20669253e-10 -5.6386006151e-09 2.3519637634e-10 1.7663376775e-08 3.4093503153e-08 3.6973138081e-08 3.3860363594e-08 3.2313261726e-08 3.3767536898e-08 
3.9658893531e-08 3.3751526505e-08 -1.9036929875e-10 1.4322850898e-08 6.9312050464e-09 1.7590439407e-08 2.9497693472e-08 2.5850106732e-08 1.5231272121e-08 
6.2247825756e-09 1.3334308013e-09 3.0600095058e-09 7.4207568736e-09 1.0431911089e-08 1.2382629881e-08 1.3562070977e-08 2.0850725617e-08 4.1129085042e-08 
5.148994073e-08 2.9026084156e-08 6.7466080281e-09 1.7660605053e-08 3.1768344545e-08 1.9070095821e-08 1.6003135684e-09 1.3934524782e-09 7.240519747e-09 
7.9325225715e-09 6.7451440934e-09 6.9540674543e-09 1.0625089443e-08 1.9824006851e-08 2.9206589806e-08 3.3428608442e-08 2.9473037294e-08 1.4322850898e-08 
3.2282228253e-08 -1.3759344018e-10 1.3360939736e-08 3.2479920193e-08 1.6921440341e-08 1.9871395255e-10 1.5824954798e-08 3.1860990574e-08 1.6367648975e-08 
-1.2872701943e-10 1.2898205571e-08 3.2302860673e-08 3.4939652214e-08 3.2137329975e-08 3.5224643736e-08 3.2856856553e-08 1.368923148e-08 -1.4093673244e-10 
1.3503646667e-08 3.2576816987e-08 3.5032409535e-08 3.1865824168e-08 3.4072460742e-08 3.2153958018e-08 1.6611954757e-08 -1.409632462e-10 -5.692210196e-09 
-7.0692386108e-11 1.669468389e-08 3.2474647926e-08 3.5139929019e-08 3.2479473637e-08 3.2282228253e-08 3.808505405e-08 2.9120922461e-08 3.5741324426e-08 
3.7155133398e-08 1.2571222827e-08 -9.3472808401e-10 3.3712959869e-08 6.854020711e-08 5.5572934067e-08 2.9079215815e-08 2.3327127433e-08 3.3455677403e-08 
5.460387421e-08 6.7240337643e-08 5.1833687494e-08 3.0849743092e-08 2.6754323767e-08 2.9136648932e-08 2.7585937995e-08 3.2167017713e-08 5.294471484e-08 
6.8517470427e-08 5.7483725523e-08 3.8688422808e-08 3.0976504962e-08 2.9136773649e-08 2.7958030537e-08 2.8806227427e-08 3.304731612e-08 3.7179933545e-08 
3.7702716632e-08 3.7157233944e-08 3.808505405e-08 0 0 1.598056339e-11 0 -9.5883380343e-11 2.5849394142e-26 
5.5931971867e-10 2.0679515314e-25 -3.2600349317e-09 8.2718061255e-25 1.9000889871e-08 3.1482508908e-08 1.5184731334e-08 8.2718061255e-25 1.5820757755e-08 
3.1482508908e-08 1.5820757769e-08 -2.4815418377e-24 1.5184731264e-08 3.1482508908e-08 1.9000890279e-08 -1.3700178895e-24 -3.2600373076e-09 -3.2634860105e-25 
5.5933356665e-10 2.8272774843e-26 -9.5964092318e-11 3.1302000719e-27 1.6450987255e-11 2.271919407e-28 -2.7418312091e-12 0 0 

