<?xml version="1.0"?>
<VTKFile type="UnstructuredGrid" version="0.1" byte_order="LittleEndian" header_type="UInt32" compressor="vtkZLibDataCompressor">
  <UnstructuredGrid>
    <Piece NumberOfPoints="289" NumberOfCells="256">
      <PointData>
        <DataArray type="Float64" Name="P1" format="ascii" RangeMin="-8396449.9486" RangeMax="54374960.42">
          2487827.2301 -4278002.0414 -4103225.4299 -7166818.3209 637475.95018 19448376.606
          33512217.974 41198912.459 45149866.368 46411931.832 45625255.393 42965353.732
          38294241.179 31208963.059 21599686.763 8935692.091 629717.72103 2576253.0554
          -4430056.7595 -4249067.9938 -7421551.3767 660134.00925 20139637.939 34703355.976
          42663261.68 46754645.904 48061569.46 47246931.87 44492488.273 39655348.521
          32318235.562 22367412.963 9253296.9254 652100.02686 2658134.9782 -4570858.7543
          -4384117.5618 -7657433.0579 681115.27084 20779742.868 35806344.486 44019242.567
          48240664.641 49589126.591 48748597.098 45906608.089 40915727.886 33345416.983
          23078324.021 9547397.594 672825.94281 2731597.4512 -4697182.8838 -4505280.7531
          -7869060.3729 699939.15081 21354029.47 36795918.996 45235795.695 49573884.571
          50959613.758 50095854.68 47175322.051 42046509.65 34266979.212 23716136.16
          9811257.5724 691420.73127 2794793.2228 -4805852.6646 -4609510.8596 -8051111.8466
          716132.31056 21848057.008 37647196.144 46282330.208 50720781.19 52138569.356
          51254827.128 48266727.694 43019259.721 35059749.094 24264811.266 10038241.966
          707416.81683 2846004.119 -4893913.5702 -4693974.0608 -8198637.8423 729254.48983
          22248393.81 38337031.313 47130392.808 51650172.545 53093939.808 52194004.17
          49151151.758 43807530.863 35702172.711 24709431.899 10222179.498 720379.2961
          2883747.5958 -4958816.2568 -4756225.1658 -8307367.5155 738925.80398 22543450.213
          38845453.927 47755432.273 52335152.964 53798067.352 52886196.84 49802990.366
          44388502.801 36175652.044 25037126.39 10357745.218 729932.90816 2906878.0652
          -4998590.8015 -4794374.7323 -8374000.7084 744852.70989 22724270.679 39157032.369
          48138477.435 52754931.953 54229580.342 53310395.739 50202458.94 44744541.903
          36465816.069 25237948.572 10440824.44 735787.68228 2914670.9 -5011991.1545
          -4807227.6175 -8396449.9486 746849.53054 22785190.498 39262005.566 48267528.325
          52896358.755 54374960.42 53453311.643 50337043.006 44864494.242 36563574.583
          25305607.125 10468814.476 737760.20115 2906878.0652 -4998590.8015 -4794374.7323
          -8374000.7084 744852.70989 22724270.679 39157032.369 48138477.435 52754931.953
          54229580.342 53310395.739 50202458.94 44744541.903 36465816.069 25237948.572
          10440824.44 735787.68228 2883747.5958 -4958816.2568 -4756225.1658 -8307367.5155
          738925.80398 22543450.213 38845453.927 47755432.273 52335152.964 53798067.352
          52886196.84 49802990.366 44388502.801 36175652.044 25037126.39 10357745.218
          729932.90816 2846004.119 -4893913.5702 -4693974.0608 -8198637.8423 729254.48984
          22248393.81 38337031.313 47130392.808 51650172.545 53093939.808 52194004.17
          49151151.758 43807530.863 35702172.711 24709431.899 10222179.498 720379.2961
          2794793.2228 -4805852.6646 -4609510.8596 -8051111.8466 716132.31055 21848057.008
          37647196.144 46282330.208 50720781.19 52138569.356 51254827.128 48266727.694
          43019259.721 35059749.094 24264811.266 10038241.966 707416.81683 2731597.4512
          -4697182.8838 -4505280.7531 -7869060.3729 699939.15081 21354029.47 36795918.996
          45235795.695 49573884.571 50959613.758 50095854.68 47175322.051 42046509.65
          34266979.212 23716136.16 9811257.5724 691420.73127 2658134.9782 -4570858.7543
          -4384117.5618 -7657433.0579 681115.27084 20779742.868 35806344.486 44019242.567
          48240664.641 49589126.591 48748597.098 45906608.089 40915727.886 33345416.983
          23078324.021 9547397.594 672825.94281 2576253.0554 -4430056.7595 -4249067.9938
          -7421551.3767 660134.00925 20139637.939 34703355.976 42663261.68 46754645.904
          48061569.46 47246931.87 44492488.273 39655348.521 32318235.562 22367412.963
          9253296.9254 652100.02686 2487827.2301 -4278002.0414 -4103225.4299 -7166818.3209
          637475.95017 19448376.606 33512217.974 41198912.459 45149866.368 46411931.832
          45625255.393 42965353.732 38294241.179 31208963.059 21599686.763 8935692.091
          629717.72102
        </DataArray>
        <DataArray type="Float64" Name="P2" format="ascii" RangeMin="-248190911.13" RangeMax="144759.24161">
          -211844193.71 -148660193.68 -84657594.192 -34741650.305 -8990004.6195 -5847731.5212
          -5942161.3763 -5192382.7395 -4417891.4262 -3572458.3241 -2724343.4978 -1913127.5082
          -1162181.6142 -553737.34627 -89420.393086 123559.74112 -1651524.8457 -219373855.58
          -153944081.67 -87666612.507 -35976486.507 -9309539.9056 -6055579.7535 -6153365.9661
          -5376937.6511 -4574918.2871 -3699435.6222 -2821175.9154 -1981126.5553 -1203489.4945
          -573419.05136 -92598.697064 127951.47408 -1710225.6452 -226346289.09 -158836938.53
          -90452950.128 -37119939.356 -9605428.1647 -6248046.2956 -6348940.4801 -5547834.6809
          -4720324.4638 -3817016.0367 -2910842.3044 -2044093.371 -1241740.4082 -591644.22286
          -95541.792511 132018.19931 -1764582.3257 -232601787.14 -163226690.9 -92952784.586
          -38145817.487 -9870891.9248 -6420722.6027 -6524405.1846 -5701159.3461 -4850779.3547
          -3922506.3298 -2991288.8115 -2100585.6695 -1276058.1996 -607995.40463 -98182.266695
          135666.76616 -1813349.8199 -237983052 -167002956.19 -95103256.257 -39028324.668
          -10099255.965 -6569266.6418 -6675347.9303 -5833056.2196 -4963002.6047 -4013253.8935
          -3060492.5678 -2149182.9223 -1305579.9295 -622061.43712 -100453.72287 138805.42995
          -1855301.8434 -242343777.25 -170063064.89 -96845897.875 -39743467.194 -10284311.498
          -6689639.7804 -6797664.8685 -5939939.2741 -5053943.0754 -4086791.4729 -3116572.0537
          -2188563.862 -1329502.9582 -633459.89175 -102294.40476 141348.8562 -1889297.8004
          -245557720.86 -172318427.53 -98130260.355 -40270541.847 -10420701.207 -6778357.2432
          -6887814.9512 -6018714.2693 -5120968.0605 -4140990.1715 -3157903.7807 -2217588.4193
          -1347134.7191 -641860.78569 -103651.02488 143223.41332 -1914353.5153 -247527333.37
          -173700589.45 -98917360.787 -40593550.884 -10504285.398 -6832726.2818 -6943061.9475
          -6066990.2301 -5162043.2208 -4174204.953 -3183233.2502 -2235375.6421 -1357940.0539
          -647009.13545 -104482.40724 144372.20483 -1929708.4983 -248190911.13 -174166250.54
          -99182541.037 -40702375.138 -10532445.561 -6851043.6333 -6961675.0897 -6083254.7763
          -5175881.7614 -4185395.2709 -3191766.9452 -2241368.2956 -1361580.4552 -648743.65448
          -104762.5064 144759.24161 -1934881.7113 -247527333.37 -173700589.45 -98917360.787
          -40593550.884 -10504285.398 -6832726.2818 -6943061.9475 -6066990.2301 -5162043.2208
          -4174204.953 -3183233.2502 -2235375.6421 -1357940.0539 -647009.13545 -104482.40724
          144372.20483 -1929708.4983 -245557720.86 -172318427.53 -98130260.355 -40270541.847
          -10420701.207 -6778357.2432 -6887814.9512 -6018714.2693 -5120968.0605 -4140990.1715
          -3157903.7807 -2217588.4193 -1347134.7191 -641860.78569 -103651.02488 143223.41331
          -1914353.5153 -242343777.25 -170063064.89 -96845897.875 -39743467.194 -10284311.498
          -6689639.7804 -6797664.8685 -5939939.2741 -5053943.0754 -4086791.4729 -3116572.0537
          -2188563.862 -1329502.9582 -633459.89175 -102294.40476 141348.8562 -1889297.8004
          -237983052 -167002956.19 -95103256.257 -39028324.668 -10099255.965 -6569266.6418
          -6675347.9303 -5833056.2196 -4963002.6047 -4013253.8935 -3060492.5678 -2149182.9223
          -1305579.9295 -622061.43712 -100453.72287 138805.42995 -1855301.8434 -232601787.14
          -163226690.9 -92952784.586 -38145817.487 -9870891.9248 -6420722.6027 -6524405.1846
          -5701159.3461 -4850779.3547 -3922506.3298 -2991288.8115 -2100585.6695 -1276058.1996
          -607995.40464 -98182.266695 135666.76616 -1813349.8199 -226346289.09 -158836938.53
          -90452950.128 -37119939.356 -9605428.1647 -6248046.2956 -6348940.4801 -5547834.6809
          -4720324.4638 -3817016.0367 -2910842.3044 -2044093.371 -1241740.4082 -591644.22285
          -95541.792509 132018.19931 -1764582.3257 -219373855.58 -153944081.67 -87666612.507
          -35976486.507 -9309539.9056 -6055579.7535 -6153365.9661 -5376937.6511 -4574918.2871
          -3699435.6222 -2821175.9154 -1981126.5553 -1203489.4945 -573419.05136 -92598.697063
          127951.47407 -1710225.6452 -211844193.71 -148660193.68 -84657594.192 -34741650.305
          -8990004.6195 -5847731.5212 -5942161.3763 -5192382.7395 -4417891.4262 -3572458.3241
          -2724343.4978 -1913127.5082 -1162181.6142 -553737.34627 -89420.393088 123559.74112
          -1651524.8457
        </DataArray>
        <DataArray type="Float64" Name="displacement" NumberOfComponents="3" format="ascii" RangeMin="6.9377296662e-06" RangeMax="1.0837440421e-05">
          6.9377296662e-06 0 0 7.8189092318e-06 0 0
          8.4347151914e-06 0 0 8.8206053787e-06 0 0
          9.0394037752e-06 0 0 9.1455073685e-06 0 0
          9.1802024192e-06 0 0 9.1721114901e-06 0 0
          9.1405481453e-06 0 0 9.0986103406e-06 0 0
          9.0557852948e-06 0 0 9.0199627058e-06 0 0
          8.9989795772e-06 0 0 9.0017737589e-06 0 0
          9.038621739e-06 0 0 9.1201570273e-06 0 0
          9.2503044959e-06 0 0 7.1546705615e-06 6.5152664039e-07 0
          8.0634043693e-06 7.3427877828e-07 0 8.6984664116e-06 7.9210951071e-07 0
          9.0964232787e-06 8.2834870557e-07 0 9.3220634408e-06 8.4889620325e-07 0
          9.4314848642e-06 8.5886045971e-07 0 9.4672648196e-06 8.6211869417e-07 0
          9.4589208894e-06 8.6135886983e-07 0 9.4263705675e-06 8.5839473588e-07 0
          9.3831213792e-06 8.5445632975e-07 0 9.338957206e-06 8.5043460225e-07 0
          9.3020144546e-06 8.4707047996e-07 0 9.2803751893e-06 8.450999409e-07 0
          9.2832567443e-06 8.4536234429e-07 0 9.3212569505e-06 8.4882276172e-07 0
          9.4053418249e-06 8.5647979292e-07 0 9.539558969e-06 8.6870202513e-07 0
          7.2876781985e-06 1.3555519081e-06 0 8.2133056614e-06 1.5277241746e-06 0
          8.8601737122e-06 1.6480455166e-06 0 9.265528726e-06 1.7234439834e-06 0
          9.4953636116e-06 1.7661946523e-06 0 9.6068192147e-06 1.7869260637e-06 0
          9.643264331e-06 1.7937050742e-06 0 9.6347652844e-06 1.7921242005e-06 0
          9.6016098415e-06 1.785957089e-06 0 9.5575566368e-06 1.7777629284e-06 0
          9.5125714374e-06 1.7693954112e-06 0 9.4749419083e-06 1.7623960928e-06 0
          9.4529003621e-06 1.7582962328e-06 0 9.4558354861e-06 1.7588421835e-06 0
          9.4945421284e-06 1.7660418515e-06 0 9.5801901678e-06 1.7819729011e-06 0
          9.7169024519e-06 1.8074022069e-06 0 7.3217944408e-06 2.1019684109e-06 0
          8.2517550987e-06 2.3689450301e-06 0 8.9016513715e-06 2.5555197075e-06 0
          9.3089039978e-06 2.6724353301e-06 0 9.5398148232e-06 2.7387260823e-06 0
          9.65179219e-06 2.7708729678e-06 0 9.688407919e-06 2.7813847496e-06 0
          9.6798690854e-06 2.778933389e-06 0 9.6465584299e-06 2.7693704402e-06 0
          9.6022989963e-06 2.7566642748e-06 0 9.557103205e-06 2.7436892962e-06 0
          9.5192975185e-06 2.7328358969e-06 0 9.4971527879e-06 2.726478504e-06 0
          9.5001016523e-06 2.7273250751e-06 0 9.5389894944e-06 2.7384891438e-06 0
          9.625038483e-06 2.7631924125e-06 0 9.7623907665e-06 2.802624025e-06 0
          7.2446125318e-06 2.8737683965e-06 0 8.1647701094e-06 3.2387733923e-06 0
          8.8078155705e-06 3.4938544909e-06 0 9.210775187e-06 3.6536991487e-06 0
          9.4392518908e-06 3.7443305148e-06 0 9.5500488602e-06 3.7882810819e-06 0
          9.5862786084e-06 3.8026525759e-06 0 9.577829786e-06 3.7993011256e-06 0
          9.5448702712e-06 3.7862268567e-06 0 9.5010773936e-06 3.7688552462e-06 0
          9.4563580289e-06 3.7511161198e-06 0 9.418950867e-06 3.7362775734e-06 0
          9.3970395727e-06 3.7275858752e-06 0 9.399957352e-06 3.72874329e-06 0
          9.438435262e-06 3.7440065773e-06 0 9.5235771745e-06 3.7777803831e-06 0
          9.6594815737e-06 3.8316904805e-06 0 7.0480194827e-06 3.648954925e-06 0
          7.9432072523e-06 4.1124184312e-06 0 8.5688027439e-06 4.4363065469e-06 0
          8.9608274679e-06 4.6392686061e-06 0 9.1831041255e-06 4.7543473891e-06 0
          9.2908944588e-06 4.8101534306e-06 0 9.3261410604e-06 4.8284015726e-06 0
          9.317921509e-06 4.8241460831e-06 0 9.2858563983e-06 4.8075450871e-06 0
          9.2432519039e-06 4.7854875601e-06 0 9.1997460639e-06 4.7629633816e-06 0
          9.1633539995e-06 4.7441222017e-06 0 9.1420372999e-06 4.7330859559e-06 0
          9.1448759009e-06 4.7345555783e-06 0 9.1823096572e-06 4.7539360708e-06 0
          9.2651411206e-06 4.796820214e-06 0 9.3973575572e-06 4.8652723257e-06 0
          6.729397631e-06 4.4030084921e-06 0 7.5841163887e-06 4.9622463547e-06 0
          8.1814304043e-06 5.3530656861e-06 0 8.5557327534e-06 5.5979696898e-06 0
          8.7679608859e-06 5.7368294096e-06 0 8.8708783105e-06 5.8041677242e-06 0
          8.9045315088e-06 5.8261868299e-06 0 8.896683541e-06 5.821051947e-06 0
          8.866068007e-06 5.8010203686e-06 0 8.8253895463e-06 5.7744046717e-06 0
          8.7838504874e-06 5.7472258899e-06 0 8.7491036095e-06 5.7244911956e-06 0
          8.7287505801e-06 5.7111743185e-06 0 8.7314608557e-06 5.7129476372e-06 0
          8.7672023334e-06 5.7363330928e-06 0 8.8462892109e-06 5.7880792092e-06 0
          8.9725285008e-06 5.8706768942e-06 0 6.2924523088e-06 5.1105724317e-06 0
          7.0916734747e-06 5.7596798792e-06 0 7.6502034e-06 6.2133039193e-06 0
          8.0002019898e-06 6.4975640228e-06 0 8.1986499752e-06 6.6587385146e-06 0
          8.2948848867e-06 6.7368981035e-06 0 8.3263529551e-06 6.7624556819e-06 0
          8.3190145624e-06 6.7564956228e-06 0 8.2903869202e-06 6.7332449676e-06 0
          8.2523497454e-06 6.7023521253e-06 0 8.2135078517e-06 6.6708057104e-06 0
          8.1810171172e-06 6.6444175482e-06 0 8.1619856268e-06 6.6289606475e-06 0
          8.164519922e-06 6.6310189387e-06 0 8.1979406761e-06 6.6581624396e-06 0
          8.2718923776e-06 6.7182241625e-06 0 8.3899348466e-06 6.8140953044e-06 0
          5.7474217813e-06 5.7474217813e-06 0 6.4774171649e-06 6.4774171649e-06 0
          6.9875691535e-06 6.9875691535e-06 0 7.3072520719e-06 7.3072520719e-06 0
          7.4885111769e-06 7.4885111769e-06 0 7.5764105521e-06 7.5764105521e-06 0
          7.605152965e-06 7.605152965e-06 0 7.5984501985e-06 7.5984501985e-06 0
          7.572302184e-06 7.572302184e-06 0 7.5375596582e-06 7.5375596582e-06 0
          7.5020821154e-06 7.5020821154e-06 0 7.4724056163e-06 7.4724056163e-06 0
          7.455022568e-06 7.455022568e-06 0 7.4573373512e-06 7.4573373512e-06 0
          7.4878633148e-06 7.4878633148e-06 0 7.5554095749e-06 7.5554095749e-06 0
          7.6632276122e-06 7.6632276122e-06 0 5.1105724317e-06 6.2924523088e-06 0
          5.7596798792e-06 7.0916734747e-06 0 6.2133039193e-06 7.6502034e-06 0
          6.4975640228e-06 8.0002019898e-06 0 6.6587385146e-06 8.1986499752e-06 0
          6.7368981035e-06 8.2948848867e-06 0 6.7624556819e-06 8.3263529552e-06 0
          6.7564956228e-06 8.3190145624e-06 0 6.7332449676e-06 8.2903869202e-06 0
          6.7023521253e-06 8.2523497454e-06 0 6.6708057104e-06 8.2135078517e-06 0
          6.6444175482e-06 8.1810171172e-06 0 6.6289606475e-06 8.1619856268e-06 0
          6.6310189387e-06 8.164519922e-06 0 6.6581624396e-06 8.1979406761e-06 0
          6.7182241625e-06 8.2718923776e-06 0 6.8140953044e-06 8.3899348466e-06 0
          4.403008492e-06 6.729397631e-06 0 4.9622463547e-06 7.5841163887e-06 0
          5.3530656861e-06 8.1814304043e-06 0 5.5979696898e-06 8.5557327534e-06 0
          5.7368294096e-06 8.7679608859e-06 0 5.8041677242e-06 8.8708783105e-06 0
          5.8261868299e-06 8.9045315088e-06 0 5.821051947e-06 8.896683541e-06 0
          5.8010203686e-06 8.866068007e-06 0 5.7744046717e-06 8.8253895463e-06 0
          5.7472258899e-06 8.7838504874e-06 0 5.7244911956e-06 8.7491036095e-06 0
          5.7111743185e-06 8.7287505801e-06 0 5.7129476372e-06 8.7314608557e-06 0
          5.7363330928e-06 8.7672023334e-06 0 5.7880792092e-06 8.8462892109e-06 0
          5.8706768942e-06 8.9725285008e-06 0 3.648954925e-06 7.0480194827e-06 0
          4.1124184312e-06 7.9432072523e-06 0 4.4363065469e-06 8.5688027439e-06 0
          4.6392686061e-06 8.9608274679e-06 0 4.7543473891e-06 9.1831041255e-06 0
          4.8101534306e-06 9.2908944588e-06 0 4.8284015726e-06 9.3261410604e-06 0
          4.8241460831e-06 9.317921509e-06 0 4.8075450871e-06 9.2858563983e-06 0
          4.7854875601e-06 9.2432519039e-06 0 4.7629633816e-06 9.1997460639e-06 0
          4.7441222017e-06 9.1633539995e-06 0 4.7330859559e-06 9.1420372999e-06 0
          4.7345555783e-06 9.144875901e-06 0 4.7539360708e-06 9.1823096572e-06 0
          4.796820214e-06 9.2651411206e-06 0 4.8652723257e-06 9.3973575572e-06 0
          2.8737683965e-06 7.2446125318e-06 0 3.2387733923e-06 8.1647701094e-06 0
          3.4938544909e-06 8.8078155705e-06 0 3.6536991487e-06 9.2107751871e-06 0
          3.7443305148e-06 9.4392518908e-06 0 3.7882810819e-06 9.5500488602e-06 0
          3.8026525759e-06 9.5862786084e-06 0 3.7993011256e-06 9.577829786e-06 0
          3.7862268567e-06 9.5448702712e-06 0 3.7688552462e-06 9.5010773936e-06 0
          3.7511161198e-06 9.4563580289e-06 0 3.7362775734e-06 9.418950867e-06 0
          3.7275858752e-06 9.3970395728e-06 0 3.72874329e-06 9.399957352e-06 0
          3.7440065773e-06 9.4384352621e-06 0 3.7777803831e-06 9.5235771745e-06 0
          3.8316904805e-06 9.6594815737e-06 0 2.1019684109e-06 7.3217944408e-06 0
          2.3689450301e-06 8.2517550987e-06 0 2.5555197075e-06 8.9016513715e-06 0
          2.6724353301e-06 9.3089039979e-06 0 2.7387260823e-06 9.5398148232e-06 0
          2.7708729678e-06 9.65179219e-06 0 2.7813847496e-06 9.688407919e-06 0
          2.778933389e-06 9.6798690854e-06 0 2.7693704402e-06 9.6465584299e-06 0
          2.7566642748e-06 9.6022989963e-06 0 2.7436892962e-06 9.557103205e-06 0
          2.7328358969e-06 9.5192975185e-06 0 2.726478504e-06 9.4971527879e-06 0
          2.7273250751e-06 9.5001016523e-06 0 2.7384891438e-06 9.5389894944e-06 0
          2.7631924125e-06 9.625038483e-06 0 2.802624025e-06 9.7623907665e-06 0
          1.3555519081e-06 7.2876781985e-06 0 1.5277241746e-06 8.2133056614e-06 0
          1.6480455166e-06 8.8601737123e-06 0 1.7234439834e-06 9.265528726e-06 0
          1.7661946523e-06 9.4953636116e-06 0 1.7869260637e-06 9.6068192147e-06 0
          1.7937050742e-06 9.643264331e-06 0 1.7921242005e-06 9.6347652844e-06 0
          1.785957089e-06 9.6016098415e-06 0 1.7777629284e-06 9.5575566368e-06 0
          1.7693954112e-06 9.5125714374e-06 0 1.7623960928e-06 9.4749419083e-06 0
          1.7582962328e-06 9.4529003621e-06 0 1.7588421835e-06 9.4558354861e-06 0
          1.7660418515e-06 9.4945421285e-06 0 1.7819729011e-06 9.5801901678e-06 0
          1.8074022069e-06 9.7169024519e-06 0 6.5152664039e-07 7.1546705615e-06 0
          7.3427877828e-07 8.0634043693e-06 0 7.9210951071e-07 8.6984664116e-06 0
          8.2834870557e-07 9.0964232787e-06 0 8.4889620325e-07 9.3220634408e-06 0
          8.5886045971e-07 9.4314848642e-06 0 8.6211869417e-07 9.4672648196e-06 0
          8.6135886983e-07 9.4589208894e-06 0 8.5839473588e-07 9.4263705675e-06 0
          8.5445632975e-07 9.3831213792e-06 0 8.5043460225e-07 9.338957206e-06 0
          8.4707047996e-07 9.3020144546e-06 0 8.450999409e-07 9.2803751893e-06 0
          8.4536234429e-07 9.2832567443e-06 0 8.4882276172e-07 9.3212569506e-06 0
          8.5647979292e-07 9.4053418249e-06 0 8.6870202513e-07 9.539558969e-06 0
          0 6.9377296662e-06 0 0 7.8189092318e-06 0
          0 8.4347151914e-06 0 0 8.8206053787e-06 0
          0 9.0394037752e-06 0 0 9.1455073685e-06 0
          0 9.1802024192e-06 0 0 9.1721114902e-06 0
          0 9.1405481453e-06 0 0 9.0986103406e-06 0
          0 9.0557852948e-06 0 0 9.0199627058e-06 0
          0 8.9989795773e-06 0 0 9.0017737589e-06 0
          0 9.038621739e-06 0 0 9.1201570273e-06 0
          0 9.2503044959e-06 0
        </DataArray>
        <DataArray type="Float64" Name="displacement_x" format="ascii" RangeMin="0" RangeMax="9.7623907665e-06">
          6.9377296662e-06 7.8189092318e-06 8.4347151914e-06 8.8206053787e-06 9.0394037752e-06 9.1455073685e-06
          9.1802024192e-06 9.1721114901e-06 9.1405481453e-06 9.0986103406e-06 9.0557852948e-06 9.0199627058e-06
          8.9989795772e-06 9.0017737589e-06 9.038621739e-06 9.1201570273e-06 9.2503044959e-06 7.1546705615e-06
          8.0634043693e-06 8.6984664116e-06 9.0964232787e-06 9.3220634408e-06 9.4314848642e-06 9.4672648196e-06
          9.4589208894e-06 9.4263705675e-06 9.3831213792e-06 9.338957206e-06 9.3020144546e-06 9.2803751893e-06
          9.2832567443e-06 9.3212569505e-06 9.4053418249e-06 9.539558969e-06 7.2876781985e-06 8.2133056614e-06
          8.8601737122e-06 9.265528726e-06 9.4953636116e-06 9.6068192147e-06 9.643264331e-06 9.6347652844e-06
          9.6016098415e-06 9.5575566368e-06 9.5125714374e-06 9.4749419083e-06 9.4529003621e-06 9.4558354861e-06
          9.4945421284e-06 9.5801901678e-06 9.7169024519e-06 7.3217944408e-06 8.2517550987e-06 8.9016513715e-06
          9.3089039978e-06 9.5398148232e-06 9.65179219e-06 9.688407919e-06 9.6798690854e-06 9.6465584299e-06
          9.6022989963e-06 9.557103205e-06 9.5192975185e-06 9.4971527879e-06 9.5001016523e-06 9.5389894944e-06
          9.625038483e-06 9.7623907665e-06 7.2446125318e-06 8.1647701094e-06 8.8078155705e-06 9.210775187e-06
          9.4392518908e-06 9.5500488602e-06 9.5862786084e-06 9.577829786e-06 9.5448702712e-06 9.5010773936e-06
          9.4563580289e-06 9.418950867e-06 9.3970395727e-06 9.399957352e-06 9.438435262e-06 9.5235771745e-06
          9.6594815737e-06 7.0480194827e-06 7.9432072523e-06 8.5688027439e-06 8.9608274679e-06 9.1831041255e-06
          9.2908944588e-06 9.3261410604e-06 9.317921509e-06 9.2858563983e-06 9.2432519039e-06 9.1997460639e-06
          9.1633539995e-06 9.1420372999e-06 9.1448759009e-06 9.1823096572e-06 9.2651411206e-06 9.3973575572e-06
          6.729397631e-06 7.5841163887e-06 8.1814304043e-06 8.5557327534e-06 8.7679608859e-06 8.8708783105e-06
          8.9045315088e-06 8.896683541e-06 8.866068007e-06 8.8253895463e-06 8.7838504874e-06 8.7491036095e-06
          8.7287505801e-06 8.7314608557e-06 8.7672023334e-06 8.8462892109e-06 8.9725285008e-06 6.2924523088e-06
          7.0916734747e-06 7.6502034e-06 8.0002019898e-06 8.1986499752e-06 8.2948848867e-06 8.3263529551e-06
          8.3190145624e-06 8.2903869202e-06 8.2523497454e-06 8.2135078517e-06 8.1810171172e-06 8.1619856268e-06
          8.164519922e-06 8.1979406761e-06 8.2718923776e-06 8.3899348466e-06 5.7474217813e-06 6.4774171649e-06
          6.9875691535e-06 7.3072520719e-06 7.4885111769e-06 7.5764105521e-06 7.605152965e-06 7.5984501985e-06
          7.572302184e-06 7.5375596582e-06 7.5020821154e-06 7.4724056163e-06 7.455022568e-06 7.4573373512e-06
          7.4878633148e-06 7.5554095749e-06 7.6632276122e-06 5.1105724317e-06 5.7596798792e-06 6.2133039193e-06
          6.4975640228e-06 6.6587385146e-06 6.7368981035e-06 6.7624556819e-06 6.7564956228e-06 6.7332449676e-06
          6.7023521253e-06 6.6708057104e-06 6.6444175482e-06 6.6289606475e-06 6.6310189387e-06 6.6581624396e-06
          6.7182241625e-06 6.8140953044e-06 4.403008492e-06 4.9622463547e-06 5.3530656861e-06 5.5979696898e-06
          5.7368294096e-06 5.8041677242e-06 5.8261868299e-06 5.821051947e-06 5.8010203686e-06 5.7744046717e-06
          5.7472258899e-06 5.7244911956e-06 5.7111743185e-06 5.7129476372e-06 5.7363330928e-06 5.7880792092e-06
          5.8706768942e-06 3.648954925e-06 4.1124184312e-06 4.4363065469e-06 4.6392686061e-06 4.7543473891e-06
          4.8101534306e-06 4.8284015726e-06 4.8241460831e-06 4.8075450871e-06 4.7854875601e-06 4.7629633816e-06
          4.7441222017e-06 4.7330859559e-06 4.7345555783e-06 4.7539360708e-06 4.796820214e-06 4.8652723257e-06
          2.8737683965e-06 3.2387733923e-06 3.4938544909e-06 3.6536991487e-06 3.7443305148e-06 3.7882810819e-06
          3.8026525759e-06 3.7993011256e-06 3.7862268567e-06 3.7688552462e-06 3.7511161198e-06 3.7362775734e-06
          3.7275858752e-06 3.72874329e-06 3.7440065773e-06 3.7777803831e-06 3.8316904805e-06 2.1019684109e-06
          2.3689450301e-06 2.5555197075e-06 2.6724353301e-06 2.7387260823e-06 2.7708729678e-06 2.7813847496e-06
          2.778933389e-06 2.7693704402e-06 2.7566642748e-06 2.7436892962e-06 2.7328358969e-06 2.726478504e-06
          2.7273250751e-06 2.7384891438e-06 2.7631924125e-06 2.802624025e-06 1.3555519081e-06 1.5277241746e-06
          1.6480455166e-06 1.7234439834e-06 1.7661946523e-06 1.7869260637e-06 1.7937050742e-06 1.7921242005e-06
          1.785957089e-06 1.7777629284e-06 1.7693954112e-06 1.7623960928e-06 1.7582962328e-06 1.7588421835e-06
          1.7660418515e-06 1.7819729011e-06 1.8074022069e-06 6.5152664039e-07 7.3427877828e-07 7.9210951071e-07
          8.2834870557e-07 8.4889620325e-07 8.5886045971e-07 8.6211869417e-07 8.6135886983e-07 8.5839473588e-07
          8.5445632975e-07 8.5043460225e-07 8.4707047996e-07 8.450999409e-07 8.4536234429e-07 8.4882276172e-07
          8.5647979292e-07 8.6870202513e-07 0 0 0 0
          0 0 0 0 0 0
          0 0 0 0 0 0
          0
        </DataArray>
        <DataArray type="Float64" Name="displacement_y" format="ascii" RangeMin="0" RangeMax="9.7623907665e-06">
          0 0 0 0 0 0
          0 0 0 0 0 0
          0 0 0 0 0 6.5152664039e-07
          7.3427877828e-07 7.9210951071e-07 8.2834870557e-07 8.4889620325e-07 8.5886045971e-07 8.6211869417e-07
          8.6135886983e-07 8.5839473588e-07 8.5445632975e-07 8.5043460225e-07 8.4707047996e-07 8.450999409e-07
          8.4536234429e-07 8.4882276172e-07 8.5647979292e-07 8.6870202513e-07 1.3555519081e-06 1.5277241746e-06
          1.6480455166e-06 1.7234439834e-06 1.7661946523e-06 1.7869260637e-06 1.7937050742e-06 1.7921242005e-06
          1.785957089e-06 1.7777629284e-06 1.7693954112e-06 1.7623960928e-06 1.7582962328e-06 1.7588421835e-06
          1.7660418515e-06 1.7819729011e-06 1.8074022069e-06 2.1019684109e-06 2.3689450301e-06 2.5555197075e-06
          2.6724353301e-06 2.7387260823e-06 2.7708729678e-06 2.7813847496e-06 2.778933389e-06 2.7693704402e-06
          2.7566642748e-06 2.7436892962e-06 2.7328358969e-06 2.726478504e-06 2.7273250751e-06 2.7384891438e-06
          2.7631924125e-06 2.802624025e-06 2.8737683965e-06 3.2387733923e-06 3.4938544909e-06 3.6536991487e-06
          3.7443305148e-06 3.7882810819e-06 3.8026525759e-06 3.7993011256e-06 3.7862268567e-06 3.7688552462e-06
          3.7511161198e-06 3.7362775734e-06 3.7275858752e-06 3.72874329e-06 3.7440065773e-06 3.7777803831e-06
          3.8316904805e-06 3.648954925e-06 4.1124184312e-06 4.4363065469e-06 4.6392686061e-06 4.7543473891e-06
          4.8101534306e-06 4.8284015726e-06 4.8241460831e-06 4.8075450871e-06 4.7854875601e-06 4.7629633816e-06
          4.7441222017e-06 4.7330859559e-06 4.7345555783e-06 4.7539360708e-06 4.796820214e-06 4.8652723257e-06
          4.4030084921e-06 4.9622463547e-06 5.3530656861e-06 5.5979696898e-06 5.7368294096e-06 5.8041677242e-06
          5.8261868299e-06 5.821051947e-06 5.8010203686e-06 5.7744046717e-06 5.7472258899e-06 5.7244911956e-06
          5.7111743185e-06 5.7129476372e-06 5.7363330928e-06 5.7880792092e-06 5.8706768942e-06 5.1105724317e-06
          5.7596798792e-06 6.2133039193e-06 6.4975640228e-06 6.6587385146e-06 6.7368981035e-06 6.7624556819e-06
          6.7564956228e-06 6.7332449676e-06 6.7023521253e-06 6.6708057104e-06 6.6444175482e-06 6.6289606475e-06
          6.6310189387e-06 6.6581624396e-06 6.7182241625e-06 6.8140953044e-06 5.7474217813e-06 6.4774171649e-06
          6.9875691535e-06 7.3072520719e-06 7.4885111769e-06 7.5764105521e-06 7.605152965e-06 7.5984501985e-06
          7.572302184e-06 7.5375596582e-06 7.5020821154e-06 7.4724056163e-06 7.455022568e-06 7.4573373512e-06
          7.4878633148e-06 7.5554095749e-06 7.6632276122e-06 6.2924523088e-06 7.0916734747e-06 7.6502034e-06
          8.0002019898e-06 8.1986499752e-06 8.2948848867e-06 8.3263529552e-06 8.3190145624e-06 8.2903869202e-06
          8.2523497454e-06 8.2135078517e-06 8.1810171172e-06 8.1619856268e-06 8.164519922e-06 8.1979406761e-06
          8.2718923776e-06 8.3899348466e-06 6.729397631e-06 7.5841163887e-06 8.1814304043e-06 8.5557327534e-06
          8.7679608859e-06 8.8708783105e-06 8.9045315088e-06 8.896683541e-06 8.866068007e-06 8.8253895463e-06
          8.7838504874e-06 8.7491036095e-06 8.7287505801e-06 8.7314608557e-06 8.7672023334e-06 8.8462892109e-06
          8.9725285008e-06 7.0480194827e-06 7.9432072523e-06 8.5688027439e-06 8.9608274679e-06 9.1831041255e-06
          9.2908944588e-06 9.3261410604e-06 9.317921509e-06 9.2858563983e-06 9.2432519039e-06 9.1997460639e-06
          9.1633539995e-06 9.1420372999e-06 9.144875901e-06 9.1823096572e-06 9.2651411206e-06 9.3973575572e-06
          7.2446125318e-06 8.1647701094e-06 8.8078155705e-06 9.2107751871e-06 9.4392518908e-06 9.5500488602e-06
          9.5862786084e-06 9.577829786e-06 9.5448702712e-06 9.5010773936e-06 9.4563580289e-06 9.418950867e-06
          9.3970395728e-06 9.399957352e-06 9.4384352621e-06 9.5235771745e-06 9.6594815737e-06 7.3217944408e-06
          8.2517550987e-06 8.9016513715e-06 9.3089039979e-06 9.5398148232e-06 9.65179219e-06 9.688407919e-06
          9.6798690854e-06 9.6465584299e-06 9.6022989963e-06 9.557103205e-06 9.5192975185e-06 9.4971527879e-06
          9.5001016523e-06 9.5389894944e-06 9.625038483e-06 9.7623907665e-06 7.2876781985e-06 8.2133056614e-06
          8.8601737123e-06 9.265528726e-06 9.4953636116e-06 9.6068192147e-06 9.643264331e-06 9.6347652844e-06
          9.6016098415e-06 9.5575566368e-06 9.5125714374e-06 9.4749419083e-06 9.4529003621e-06 9.4558354861e-06
          9.4945421285e-06 9.5801901678e-06 9.7169024519e-06 7.1546705615e-06 8.0634043693e-06 8.6984664116e-06
          9.0964232787e-06 9.3220634408e-06 9.4314848642e-06 9.4672648196e-06 9.4589208894e-06 9.4263705675e-06
          9.3831213792e-06 9.338957206e-06 9.3020144546e-06 9.2803751893e-06 9.2832567443e-06 9.3212569506e-06
          9.4053418249e-06 9.539558969e-06 6.9377296662e-06 7.8189092318e-06 8.4347151914e-06 8.8206053787e-06
          9.0394037752e-06 9.1455073685e-06 9.1802024192e-06 9.1721114902e-06 9.1405481453e-06 9.0986103406e-06
          9.0557852948e-06 9.0199627058e-06 8.9989795773e-06 9.0017737589e-06 9.038621739e-06 9.1201570273e-06
          9.2503044959e-06
        </DataArray>
        <DataArray type="Float64" Name="s_xx" format="ascii" RangeMin="-218688956.03" RangeMax="47803766.137">
          2487827.2301 -4243934.9632 -4307627.899 -5974470.5845 -6312207.9992 -6307168.7951
          -5863334.3533 -5205907.6038 -4415569.2638 -3572866.4344 -2724216.9981 -1913478.3957
          -1160202.7886 -565259.41226 -22266.822724 -267839.61505 629717.72103 748077.82457
          -5626888.2682 -5144348.5217 -6442367.5725 -6500127.6363 -6307742.5922 -5736550.1969
          -4995011.4088 -4149758.0138 -3273502.3637 -2408642.3481 -1598686.5873 -864924.96369
          -314229.65536 160796.44885 -195518.22494 632641.84633 -4999198.0806 -9695164.2062
          -7465833.2206 -7453810.5359 -6591699.5865 -5802365.4086 -4860782.764 -3903920.3845
          -2947126.7349 -2031655.5829 -1183354.2135 -441092.12339 169872.39737 531638.3707
          746286.44507 56618.353638 591325.12907 -15186170.746 -16735562.97 -11429735.405
          -9064442.3725 -6573588.8639 -4733652.9215 -3152719.3214 -1835520.004 -704843.26592
          255718.16135 1050767.704 1650847.3597 2024269.0488 2036584.128 1777493.5443
          508034.90357 500712.99043 -29940185.836 -26829513.765 -17079784.446 -11287369.229
          -6438607.2257 -3081572.2281 -584996.73159 1241234.6624 2609391.8496 3620539.7546
          4324056.3047 4704830.882 4722227.1704 4219638.9257 3267055.3218 1164548.447
          359002.11281 -48982036.807 -39784754.727 -24307958.663 -14079197.027 -6187994.4137
          -876127.33919 2794928.2441 5269098.5149 6933665.834 7999761.1847 8575021.5917
          8663356.8626 8212837.7374 7039531.613 5186735.3054 2013767.8977 168747.6147
          -71590851.13 -55111921.364 -32841579.507 -17335394.005 -5832386.2422 1798088.9469
          6858109.4174 10094731.868 12103569.33 13227048.348 13642337.013 13376310.973
          12363826.991 10389472.751 7463901.4401 3023515.4348 -62737.37964 -96629229.987
          -72041730.744 -42252925.426 -20894062.27 -5391568.6006 4804725.3966 11398500.186
          15473954.923 17857853.409 19038522.087 19270422.418 18606173.446 16966155.345
          14100874.869 9984063.6034 4142945.5495 -323624.74512 -122638120.11 -89589120.846
          -51994884.327 -24549412.543 -4892798.0154 7967073.4326 16150165.238 21092136.774
          23860238.497 25094782.575 25130772.349 24047837.355 21751456.893 17957415.464
          12600422.31 5306786.8586 -598560.75508 -147991225.32 -106657449.51 -61458810.094
          -28073489.322 -4367864.0877 11086819 20815470.235 26597532.282 29735035.323
          31016853.301 30856740.071 29360909.852 26420446.503 21717932.065 15149402.562
          6442251.0954 -870296.07089 -171083122.14 -122165322.43 -70044906.013 -31242515.357
          -3849389.1609 13967004.023 25099529.559 31641986.137 35110615.573 36430028.832
          36085956.046 34209090.973 30677541.09 25144318.507 17469573.925 7477453.1961
          -1121683.2275 -190515736.33 -135172223.74 -77231913.272 -33862908.009 -3367062.5946
          16434881.369 28744438.2 35921355.02 39662563.635 41007387.15 40502410.524
          38299231.034 34265190.167 28029181.206 19420402.189 8349760.4567 -1337666.119
          -205248072.94 -144979295.09 -82632982.671 -35792067.286 -2944516.4292 18360362.595
          31556844.945 39208039.326 43148386.735 44504775.708 43870278.255 41412713.89
          36991452.621 30218048.731 20897302.222 9012498.9494 -1506887.1394 -214684018.94
          -151188310.81 -86028329.934 -36950435.488 -2597363.9101 19666959.788 33424233.133
          41370156.353 45427948.482 46781389.267 46053798.164 43423889.022 38746182.401
          31622399.679 21840460.349 9438889.435 -1622642.0791 -218688956.03 -153712633.08
          -87371234.469 -37323561.878 -2332613.3073 20334061.981 34318186.77 42375328.271
          46467466.912 47803766.137 47021109.008 44303606.841 39504115.081 32222134.389
          22236495.783 9622797.4396 -1683081.512 -217545680.35 -152747250.16 -86771331.979
          -36955670.311 -2149278.26 20391800.778 34286540.207 42281335.438 46329485.631
          47635636.202 46834398.303 44110048.305 39316783.99 32059046.166 22114017.817
          9576766.6245 -1690767.4646 -211844193.71 -148694260.76 -84453191.723 -35933998.042
          -2040320.6702 19907813.88 33433390.951 41212437.323 45147544.205 46412339.942
          45625128.894 42965704.62 38292262.353 31220485.125 21532533.193 9327091.4472
          -1651524.8457
        </DataArray>
        <DataArray type="Float64" Name="s_xy" format="ascii" RangeMin="-29281030.755" RangeMax="125554398.03">
          0.0071758393175 0.0054318692076 0.0031829639785 0.0013717700216 8.5163892785e-05 -0.00076298937455
          -0.0012937981204 -0.0016008703543 -0.0017506500608 -0.0017828916687 -0.0017202871969 -0.0015742802391
          -0.0013487268452 -0.0010574192183 -0.00073571249486 -0.00045298696423 -0.0003176545565 20044737.915
          13509268.98 7495365.4365 2801871.9423 -399515.02161 -2451674.9988 -3675104.4299
          -4341131.8308 -4635236.5611 -4674711.4919 -4521722.7106 -4197186.4837 -3689669.5152
          -2972663.2344 -2015845.86 -897336.18698 213346.14015 41172054.967 27748148.538
          15395541.668 5755067.7954 -820607.10832 -5035760.4194 -7548694.4375 -8916720.1449
          -9520813.6569 -9601895.4865 -9287655.2834 -8621055.2296 -7578611.2419 -6105874.5002
          -4140563.8185 -1843135.8384 438214.70969 62416804.519 42066172.417 23339629.646
          8724678.4704 -1244039.7625 -7634209.0275 -11443815.118 -13517741.067 -14433546.379
          -14556466.372 -14080078.459 -13069513.276 -11489168.971 -9256501.1727 -6277091.65
          -2794192.5515 664333.17197 82526231.696 55619039.108 30859184.458 11535592.738
          -1644844.1162 -10093796.18 -15130780.007 -17872882.79 -19083741.98 -19246264.299
          -18616393.873 -17280245.106 -15190745.951 -12238757.918 -8299443.137 -3694424.6616
          878367.83211 100109447.15 67469350.552 37434108.308 13993390.802 -1995298.1221
          -12244401.985 -18354576.361 -21680917.428 -23149764.868 -23346914.54 -22582842.573
          -20962011.091 -18427318.777 -14846373.859 -10067740.245 -4481566.6826 1065514.7613
          113826566.43 76714083.748 42563375.759 15910782.379 -2268696.3189 -13922144.969
          -20869542.935 -24651663.336 -26321774.054 -26545937.416 -25677171.371 -23834251.571
          -20952252.606 -16880642.221 -11447234.366 -5095636.4482 1211512.9012 122556949.82
          82597976.967 45827943.955 17131123.417 -2442703.0493 -14989959.513 -22470215.929
          -26542421.169 -28340627.703 -28581984.169 -27646584.641 -25662314.742 -22559269.349
          -18175370.535 -12325225.751 -5486466.6489 1304434.7247 125554398.03 84618124.813
          46948785.235 17550109.491 -2502445.6905 -15356577.868 -23019783.364 -27191584.949
          -29033771.289 -29281030.755 -28322753.603 -26289953.236 -23111014.816 -18619896.381
          -12626671.128 -5620652.4267 1336338.0605 122556949.82 82597976.967 45827943.955
          17131123.417 -2442703.0493 -14989959.513 -22470215.929 -26542421.169 -28340627.703
          -28581984.169 -27646584.641 -25662314.742 -22559269.349 -18175370.535 -12325225.751
          -5486466.6489 1304434.7247 113826566.43 76714083.748 42563375.759 15910782.379
          -2268696.3189 -13922144.969 -20869542.935 -24651663.336 -26321774.054 -26545937.416
          -25677171.371 -23834251.571 -20952252.606 -16880642.221 -11447234.366 -5095636.4482
          1211512.9012 100109447.15 67469350.552 37434108.308 13993390.802 -1995298.1221
          -12244401.985 -18354576.361 -21680917.428 -23149764.868 -23346914.54 -22582842.573
          -20962011.091 -18427318.777 -14846373.859 -10067740.245 -4481566.6826 1065514.7613
          82526231.696 55619039.108 30859184.458 11535592.738 -1644844.1162 -10093796.18
          -15130780.007 -17872882.79 -19083741.98 -19246264.299 -18616393.873 -17280245.106
          -15190745.951 -12238757.918 -8299443.137 -3694424.6616 878367.83211 62416804.519
          42066172.417 23339629.646 8724678.4704 -1244039.7625 -7634209.0275 -11443815.118
          -13517741.067 -14433546.379 -14556466.372 -14080078.459 -13069513.276 -11489168.971
          -9256501.1728 -6277091.65 -2794192.5515 664333.17197 41172054.967 27748148.538
          15395541.668 5755067.7954 -820607.10832 -5035760.4194 -7548694.4375 -8916720.1449
          -9520813.657 -9601895.4865 -9287655.2834 -8621055.2296 -7578611.2419 -6105874.5003
          -4140563.8185 -1843135.8384 438214.70968 20044737.915 13509268.98 7495365.4365
          2801871.9423 -399515.02161 -2451674.9988 -3675104.4299 -4341131.8308 -4635236.5611
          -4674711.4919 -4521722.7106 -4197186.4837 -3689669.5152 -2972663.2344 -2015845.86
          -897336.18698 213346.14014 0.0071699411842 0.0054286688245 0.0031809760361 0.0013708185067
          8.3786986197e-05 -0.00076498540261 -0.0012939892326 -0.0015999294176 -0.0017498995961 -0.0017826641818
          -0.0017218688219 -0.0015752928767 -0.0013490090906 -0.0010579156749 -0.00073565407606 -0.00045357494186
          -0.00031752111624
        </DataArray>
        <DataArray type="Float64" Name="s_yy" format="ascii" RangeMin="-218688956.03" RangeMax="47803766.137">
          -211844193.71 -148694260.76 -84453191.723 -35933998.042 -2040320.6701 19907813.88
          33433390.951 41212437.323 45147544.205 46412339.942 45625128.894 42965704.62
          38292262.353 31220485.125 21532533.193 9327091.4472 -1651524.8457 -217545680.35
          -152747250.16 -86771331.979 -36955670.311 -2149278.26 20391800.778 34286540.207
          42281335.438 46329485.631 47635636.202 46834398.303 44110048.305 39316783.99
          32059046.166 22114017.817 9576766.6244 -1690767.4647 -218688956.03 -153712633.08
          -87371234.469 -37323561.878 -2332613.3073 20334061.981 34318186.77 42375328.271
          46467466.912 47803766.137 47021109.008 44303606.841 39504115.081 32222134.389
          22236495.783 9622797.4396 -1683081.512 -214684018.94 -151188310.81 -86028329.934
          -36950435.488 -2597363.9101 19666959.788 33424233.133 41370156.353 45427948.482
          46781389.267 46053798.164 43423889.022 38746182.401 31622399.679 21840460.349
          9438889.435 -1622642.0791 -205248072.94 -144979295.09 -82632982.671 -35792067.286
          -2944516.4292 18360362.595 31556844.945 39208039.326 43148386.735 44504775.708
          43870278.255 41412713.89 36991452.621 30218048.731 20897302.222 9012498.9494
          -1506887.1394 -190515736.33 -135172223.74 -77231913.272 -33862908.009 -3367062.5946
          16434881.369 28744438.2 35921355.02 39662563.635 41007387.15 40502410.524
          38299231.034 34265190.167 28029181.206 19420402.189 8349760.4567 -1337666.119
          -171083122.14 -122165322.43 -70044906.013 -31242515.357 -3849389.1609 13967004.023
          25099529.559 31641986.137 35110615.573 36430028.832 36085956.046 34209090.973
          30677541.09 25144318.507 17469573.925 7477453.1961 -1121683.2275 -147991225.32
          -106657449.51 -61458810.094 -28073489.322 -4367864.0877 11086819 20815470.235
          26597532.282 29735035.323 31016853.301 30856740.071 29360909.852 26420446.503
          21717932.065 15149402.562 6442251.0954 -870296.07089 -122638120.11 -89589120.846
          -51994884.327 -24549412.543 -4892798.0154 7967073.4326 16150165.238 21092136.774
          23860238.497 25094782.575 25130772.349 24047837.355 21751456.893 17957415.464
          12600422.31 5306786.8586 -598560.75508 -96629229.987 -72041730.744 -42252925.426
          -20894062.27 -5391568.6006 4804725.3966 11398500.186 15473954.923 17857853.409
          19038522.087 19270422.418 18606173.446 16966155.345 14100874.869 9984063.6034
          4142945.5495 -323624.74512 -71590851.13 -55111921.364 -32841579.507 -17335394.005
          -5832386.2422 1798088.9469 6858109.4174 10094731.868 12103569.33 13227048.348
          13642337.013 13376310.973 12363826.991 10389472.751 7463901.4401 3023515.4348
          -62737.379637 -48982036.807 -39784754.727 -24307958.663 -14079197.027 -6187994.4137
          -876127.33919 2794928.2441 5269098.5149 6933665.834 7999761.1847 8575021.5917
          8663356.8626 8212837.7374 7039531.613 5186735.3054 2013767.8977 168747.61469
          -29940185.836 -26829513.765 -17079784.446 -11287369.229 -6438607.2257 -3081572.2281
          -584996.73159 1241234.6624 2609391.8496 3620539.7546 4324056.3047 4704830.8821
          4722227.1704 4219638.9257 3267055.3218 1164548.447 359002.11281 -15186170.746
          -16735562.97 -11429735.405 -9064442.3725 -6573588.8639 -4733652.9215 -3152719.3214
          -1835520.004 -704843.26592 255718.16135 1050767.704 1650847.3597 2024269.0488
          2036584.128 1777493.5443 508034.90357 500712.99042 -4999198.0806 -9695164.2062
          -7465833.2206 -7453810.5359 -6591699.5865 -5802365.4086 -4860782.764 -3903920.3845
          -2947126.7349 -2031655.5829 -1183354.2135 -441092.12339 169872.39737 531638.3707
          746286.44508 56618.353639 591325.12907 748077.82457 -5626888.2682 -5144348.5217
          -6442367.5725 -6500127.6363 -6307742.5922 -5736550.1969 -4995011.4088 -4149758.0138
          -3273502.3637 -2408642.3481 -1598686.5873 -864924.96369 -314229.65537 160796.44886
          -195518.22494 632641.84632 2487827.2301 -4243934.9632 -4307627.899 -5974470.5845
          -6312207.9992 -6307168.7951 -5863334.3533 -5205907.6038 -4415569.2638 -3572866.4344
          -2724216.9981 -1913478.3957 -1160202.7886 -565259.41226 -22266.822727 -267839.61505
          629717.72102
        </DataArray>
        <DataArray type="Float64" Name="s_zz" format="ascii" RangeMin="-354760362.13" RangeMax="6430309.3385">
          -302806909.94 -230600433.32 -155783223.63 -98287675.34 -57527994.368 -30562189.417
          -13419180.99 -3029483.9398 2794192.3537 5400548.0192 5488612.3391 3238864.1349
          -1556525.4983 -9394782.8312 -20594609.662 -35014699.54 -48306542.137 -313569695.58
          -238796755.63 -161320288.3 -101781153.02 -59572734.601 -31648473.391 -13896144.242
          -3137162.0853 2893507.4357 5592501.8303 5683696.2552 3353984.3618 -1611849.6997
          -9728705.3096 -21326612.01 -36259240.841 -50023520.65 -323535987.35 -246386513.74
          -166447585.62 -105016097.86 -61466154.99 -32654367.533 -14337810.099 -3236871.5697
          2985472.762 5770250.2091 5864343.0973 3460585.1823 -1663079.6639 -10037916.043
          -22004442.938 -37411680.565 -51613435.139 -332477502.35 -253195860.44 -171047672.29
          -107918411.82 -63164885.789 -33556831.334 -14734061.981 -3326328.4981 3067981.8198
          5929721.7386 6026415.0577 3556224.8498 -1709041.9444 -10315332.406 -22612576.389
          -38445621.505 -53039867.815 -340169401.55 -259053571.18 -175004876.75 -110415114.72
          -64626211.537 -34333171.876 -15074935.931 -3403283.43 3138959.8762 6066906.4251
          6165836.7535 3638498.4561 -1748580.7952 -10553978.62 -23135720.533 -39335064.68
          -54266950.292 -346402556.75 -263800385.88 -178211610.08 -112438325.93 -65810401.546
          -34962281.925 -15351164.231 -3465644.1059 3196477.1719 6178074.476 6278817.572
          3705169.1368 -1780621.2299 -10747366.345 -23559652.069 -40055827.811 -55261320.514
          -350996519.5 -267298885.3 -180575038.07 -113929473.94 -66683173.779 -35425948.885
          -15554750.132 -3511605.1983 3238868.5942 6260007.601 6362086.7438 3754306.7908
          -1804235.6849 -10889897.05 -23872098.273 -40587044.966 -55994191.686 -353811854.05
          -269442883.16 -182023426.06 -114843299.48 -67218037.894 -35710099.56 -15679514.404
          -3539771.6982 3264847.4804 6310218.9698 6413116.8869 3784419.9943 -1818707.4154
          -10977244.649 -24063575.793 -40912592.667 -56443319.736 -354760362.13 -270165212.7
          -182511399.22 -115151174.4 -67398237.77 -35805832.13 -15721548.457 -3549261.2108
          3273599.969 6327135.57 6430309.3385 3794565.3665 -1823583.0539 -11006672.734
          -24128086.056 -41022272.217 -56594634.465 -353811854.05 -269442883.16 -182023426.06
          -114843299.48 -67218037.894 -35710099.56 -15679514.404 -3539771.6982 3264847.4804
          6310218.9698 6413116.8869 3784419.9943 -1818707.4154 -10977244.649 -24063575.793
          -40912592.667 -56443319.736 -350996519.5 -267298885.3 -180575038.07 -113929473.94
          -66683173.779 -35425948.885 -15554750.132 -3511605.1983 3238868.5942 6260007.601
          6362086.7438 3754306.7908 -1804235.6849 -10889897.05 -23872098.273 -40587044.966
          -55994191.686 -346402556.76 -263800385.88 -178211610.08 -112438325.93 -65810401.546
          -34962281.925 -15351164.231 -3465644.1059 3196477.1719 6178074.476 6278817.572
          3705169.1368 -1780621.2299 -10747366.345 -23559652.069 -40055827.811 -55261320.514
          -340169401.55 -259053571.18 -175004876.75 -110415114.72 -64626211.537 -34333171.876
          -15074935.931 -3403283.43 3138959.8762 6066906.4251 6165836.7535 3638498.4561
          -1748580.7952 -10553978.62 -23135720.533 -39335064.68 -54266950.292 -332477502.35
          -253195860.44 -171047672.29 -107918411.82 -63164885.789 -33556831.334 -14734061.981
          -3326328.4981 3067981.8198 5929721.7386 6026415.0577 3556224.8498 -1709041.9444
          -10315332.406 -22612576.389 -38445621.505 -53039867.815 -323535987.35 -246386513.74
          -166447585.62 -105016097.86 -61466154.99 -32654367.533 -14337810.099 -3236871.5697
          2985472.762 5770250.2091 5864343.0973 3460585.1823 -1663079.6639 -10037916.043
          -22004442.938 -37411680.565 -51613435.139 -313569695.58 -238796755.63 -161320288.3
          -101781153.02 -59572734.601 -31648473.391 -13896144.242 -3137162.0853 2893507.4357
          5592501.8303 5683696.2552 3353984.3618 -1611849.6997 -9728705.3096 -21326612.01
          -36259240.841 -50023520.65 -302806909.94 -230600433.32 -155783223.63 -98287675.34
          -57527994.368 -30562189.417 -13419180.99 -3029483.9398 2794192.3537 5400548.0192
          5488612.3391 3238864.1349 -1556525.4983 -9394782.8312 -20594609.662 -35014699.54
          -48306542.137
        </DataArray>
        <DataArray type="Float64" Name="theta" format="ascii" RangeMin="276.07569218" RangeMax="436.99668247">
          373 349.96623942 326.81457406 308.71463948 295.92593157 287.43432623
          282.03758249 278.76310119 276.92725005 276.10470585 276.07569218 276.78200156
          278.29005974 280.74639606 284.26987066 288.72186462 293 386.25768637
          362.40522774 338.43067359 319.68740589 306.44414388 297.65071805 292.06215572
          288.67128824 286.77018472 285.9184045 285.88835958 286.61977359 288.18143328
          290.72507614 294.37378698 298.98401993 303.41421477 398.53424516 373.92367576
          349.18713024 329.84813891 316.18396183 307.11105157 301.34486607 297.8462255
          295.88469856 295.00584592 294.97484608 295.72950687 297.34080132 299.96528964
          303.7299687 308.48673024 313.05773145 409.54847563 384.25774765 358.83756198
          338.96410188 324.92229001 315.59863311 309.67308841 306.07775644 304.06201909
          303.15887773 303.12702115 303.90253839 305.55836393 308.25538484 312.12410776
          317.01233119 321.70966048 419.02341926 393.14758784 367.13930372 346.8060692
          332.43939864 322.90003804 316.83740529 313.15889497 311.09652333 310.17248772
          310.13989413 310.93335303 312.62748626 315.38690301 319.34512921 324.34644217
          329.15244462 426.70147023 400.35149837 373.86664677 353.16083257 338.53091175
          328.81675495 322.64303246 318.8971183 316.79695642 315.85598907 315.82279825
          316.63079624 318.35597223 321.16595164 325.19670711 330.28966253 335.18372863
          432.36035069 405.66092762 378.82483606 357.84442302 343.02048137 333.17749621
          326.92189831 323.12630614 320.99829209 320.0448457 320.01121471 320.8299283
          322.57798343 325.42522857 329.50943959 334.66993737 339.62890818 435.82830255
          408.91472406 381.86338086 360.71468444 345.77184031 335.84990481 329.54413091
          325.71809438 323.57301158 322.61191763 322.57801688 323.40329736 325.1653736
          328.03545641 332.15242679 337.3543168 342.3530634 436.99668247 410.01095336
          382.88709021 361.68169781 346.69879451 336.75026002 330.42758144 326.59128798
          324.44045458 323.4767841 323.44279247 324.27028538 326.03708544 328.91486245
          333.04286971 338.25870508 343.27085245 435.82830255 408.91472406 381.86338086
          360.71468444 345.77184031 335.84990481 329.54413091 325.71809438 323.57301158
          322.61191763 322.57801688 323.40329736 325.1653736 328.03545641 332.15242679
          337.3543168 342.3530634 432.36035069 405.66092762 378.82483606 357.84442302
          343.02048137 333.17749621 326.92189831 323.12630614 320.99829209 320.0448457
          320.01121471 320.8299283 322.57798343 325.42522857 329.50943959 334.66993737
          339.62890818 426.70147023 400.35149837 373.86664677 353.16083257 338.53091175
          328.81675495 322.64303246 318.8971183 316.79695642 315.85598907 315.82279825
          316.63079624 318.35597223 321.16595164 325.19670711 330.28966253 335.18372863
          419.02341926 393.14758784 367.13930372 346.8060692 332.43939864 322.90003804
          316.83740529 313.15889497 311.09652333 310.17248772 310.13989413 310.93335303
          312.62748626 315.38690301 319.34512921 324.34644217 329.15244462 409.54847563
          384.25774765 358.83756198 338.96410188 324.92229001 315.59863311 309.67308841
          306.07775644 304.06201909 303.15887773 303.12702115 303.90253839 305.55836393
          308.25538484 312.12410776 317.01233119 321.70966048 398.53424516 373.92367576
          349.18713024 329.84813891 316.18396183 307.11105157 301.34486607 297.8462255
          295.88469856 295.00584592 294.97484608 295.72950687 297.34080132 299.96528964
          303.7299687 308.48673024 313.05773145 386.25768637 362.40522774 338.43067359
          319.68740589 306.44414388 297.65071805 292.06215572 288.67128824 286.77018472
          285.9184045 285.88835958 286.61977359 288.18143328 290.72507614 294.37378698
          298.98401993 303.41421477 373 349.96623942 326.81457406 308.71463948
          295.92593157 287.43432623 282.03758249 278.76310119 276.92725005 276.10470585
          276.07569218 276.78200156 278.29005974 280.74639606 284.26987066 288.72186462
          293
        </DataArray>
        <DataArray type="Float64" Name="von Mises stress" format="ascii" RangeMin="36531474.771" RangeMax="318074276.28">
          271493376.98 198494737.08 131264824.43 81556364.982 53574380.154 43685289.364
          43515478.811 45354694.472 46375615.372 46155551.812 44809218.461 42533244.973
          39644199.631 36980182.433 36531474.771 40422441.881 47836451.766 281143173.35
          205549913.95 135930421.95 84455155.085 55478595.515 45238012.863 45062166.666
          46966754.295 48023962.19 47796076.824 46401890.215 44045020.902 41053289.08
          38294583.666 37829927.412 41859192.704 49536721.671 290078841.99 212082976.44
          140250744.56 87139421.865 57241890.494 46675827.939 46494392.762 48459514.545
          49550324.037 49315195.713 47876697.198 45444918.71 42358099.663 39511713.381
          39032288.8 43189617.594 51111164.063 298095706.93 217944281.48 144126833.11
          89547680.846 58823875.937 47965800.714 47779351.241 49798782.796 50919738.824
          50678112.294 49199858.215 46700873.033 43528744.037 40603692.609 40111018.243
          44383242.503 52523715.55 304992179.97 222986443.53 147461221.35 91619375.112
          60184772.002 49075494.157 48884731.157 50950882.457 52097771.911 51850555.328
          50338101.698 47781302.252 44535785.744 41543062.969 41038990.533 45410053.115
          53738856.794 310580759.02 227072375.73 150163253.55 93298179.207 61287578.495
          49974737.799 49780479.32 51884490.114 53052394.803 52800648.303 51260480.956
          48656831.537 45351845.223 42304284.754 41790975.856 46242132.389 54723550.4
          314699655.98 230083791.24 152154706.5 94535492.129 62100369.413 50637498.738
          50440664.018 52572578.034 53755971.381 53500886.239 51940293.317 49302114.509
          45953297.734 42865320.763 42345204.405 46855391.816 55449289.708 317223854.27
          231929287.74 153375135.7 95293759.012 62598474.966 51043660.884 50845247.358
          52994261.404 54187146.72 53930015.546 52356905.147 49697565.57 46321888.017
          43209142.459 42684854.26 47231217.775 55894047.113 318074276.28 232551049.85
          153786307.78 95549225.016 62766290.597 51180500.066 50981554.628 53136329.807
          54332413.041 54074592.544 52497264.908 49830796.105 46446068.947 43324978.659
          42799284.934 47357836.46 56043889.337 317223854.27 231929287.74 153375135.7
          95293759.012 62598474.966 51043660.884 50845247.358 52994261.404 54187146.72
          53930015.546 52356905.147 49697565.57 46321888.017 43209142.459 42684854.26
          47231217.775 55894047.113 314699655.98 230083791.24 152154706.5 94535492.129
          62100369.413 50637498.738 50440664.018 52572578.034 53755971.381 53500886.239
          51940293.317 49302114.509 45953297.734 42865320.763 42345204.405 46855391.816
          55449289.708 310580759.02 227072375.73 150163253.55 93298179.207 61287578.495
          49974737.799 49780479.32 51884490.114 53052394.803 52800648.303 51260480.956
          48656831.537 45351845.223 42304284.754 41790975.856 46242132.389 54723550.4
          304992179.97 222986443.53 147461221.35 91619375.112 60184772.002 49075494.157
          48884731.157 50950882.457 52097771.911 51850555.328 50338101.698 47781302.252
          44535785.744 41543062.969 41038990.533 45410053.115 53738856.794 298095706.93
          217944281.48 144126833.11 89547680.846 58823875.937 47965800.714 47779351.241
          49798782.796 50919738.824 50678112.294 49199858.215 46700873.033 43528744.037
          40603692.609 40111018.243 44383242.503 52523715.55 290078841.99 212082976.44
          140250744.56 87139421.865 57241890.494 46675827.939 46494392.762 48459514.545
          49550324.037 49315195.713 47876697.198 45444918.71 42358099.663 39511713.381
          39032288.8 43189617.594 51111164.063 281143173.35 205549913.95 135930421.95
          84455155.085 55478595.515 45238012.863 45062166.666 46966754.295 48023962.19
          47796076.824 46401890.215 44045020.902 41053289.08 38294583.666 37829927.412
          41859192.704 49536721.671 271493376.98 198494737.08 131264824.43 81556364.982
          53574380.154 43685289.364 43515478.811 45354694.472 46375615.372 46155551.812
          44809218.461 42533244.973 39644199.631 36980182.433 36531474.771 40422441.881
          47836451.766
        </DataArray>
      </PointData>
      <CellData>
      </CellData>
      <Points>
        <DataArray type="Float64" Name="Points" NumberOfComponents="3" format="ascii" RangeMin="0.03" RangeMax="0.04">
          0.03 0 0 0.030625 0 0
          0.03125 0 0 0.031875 0 0
          0.0325 0 0 0.033125 0 0
          0.03375 0 0 0.034375 0 0
          0.035 0 0 0.035625 0 0
          0.03625 0 0 0.036875 0 0
          0.0375 0 0 0.038125 0 0
          0.03875 0 0 0.039375 0 0
          0.04 0 0 0.029878647258 0.0026956331369 0
          0.030501119076 0.0027517921606 0 0.031123590894 0.0028079511843 0
          0.031746062712 0.002864110208 0 0.03236853453 0.0029202692317 0
          0.032991006348 0.0029764282554 0 0.033613478166 0.003032587279 0
          0.034235949984 0.0030887463027 0 0.034858421801 0.0031449053264 0
          0.035480893619 0.0032010643501 0 0.036103365437 0.0032572233738 0
          0.036725837255 0.0033133823975 0 0.037348309073 0.0033695414212 0
          0.037970780891 0.0034257004448 0 0.038593252709 0.0034818594685 0
          0.039215724527 0.0035380184922 0 0.039838196345 0.0035941775159 0
          0.029499161052 0.0054588915724 0 0.030113726908 0.0055726184801 0
          0.030728292763 0.0056863453879 0 0.031342858618 0.0058000722956 0
          0.031957424474 0.0059137992034 0 0.032571990329 0.0060275261112 0
          0.033186556184 0.0061412530189 0 0.033801122039 0.0062549799267 0
          0.034415687895 0.0063687068344 0 0.03503025375 0.0064824337422 0
          0.035644819605 0.0065961606499 0 0.03625938546 0.0067098875577 0
          0.036873951316 0.0068236144655 0 0.037488517171 0.0069373413732 0
          0.038103083026 0.007051068281 0 0.038717648881 0.0071647951887 0
          0.039332214737 0.0072785220965 0 0.028841968746 0.0082547464454 0
          0.029442843094 0.0084267203296 0 0.030043717443 0.0085986942139 0
          0.030644591792 0.0087706680982 0 0.031245466141 0.0089426419825 0
          0.03184634049 0.0091146158668 0 0.032447214839 0.009286589751 0
          0.033048089188 0.0094585636353 0 0.033648963537 0.0096305375196 0
          0.034249837885 0.0098025114039 0 0.034850712234 0.0099744852881 0
          0.035451586583 0.010146459172 0 0.036052460932 0.010318433057 0
          0.036653335281 0.010490406941 0 0.03725420963 0.010662380825 0
          0.037855083979 0.01083435471 0 0.038455958327 0.011006328594 0
          0.027893649032 0.011042841287 0 0.02847476672 0.01127290048 0
          0.029055884408 0.011502959674 0 0.029637002096 0.011733018867 0
          0.030218119785 0.011963078061 0 0.030799237473 0.012193137254 0
          0.031380355161 0.012423196448 0 0.031961472849 0.012653255641 0
          0.032542590537 0.012883314835 0 0.033123708225 0.013113374028 0
          0.033704825914 0.013343433222 0 0.034285943602 0.013573492415 0
          0.03486706129 0.013803551609 0 0.035448178978 0.014033610802 0
          0.036029296666 0.014263669996 0 0.036610414354 0.014493729189 0
          0.037191532042 0.014723788382 0 0.026648520205 0.013778837792 0
          0.027203697709 0.014065896912 0 0.027758875213 0.014352956033 0
          0.028314052718 0.014640015154 0 0.028869230222 0.014927074274 0
          0.029424407726 0.015214133395 0 0.029979585231 0.015501192516 0
          0.030534762735 0.015788251636 0 0.031089940239 0.016075310757 0
          0.031645117743 0.016362369878 0 0.032200295248 0.016649428998 0
          0.032755472752 0.016936488119 0 0.033310650256 0.01722354724 0
          0.03386582776 0.01751060636 0 0.034421005265 0.017797665481 0
          0.034976182769 0.018084724602 0 0.035531360273 0.018371783722 0
          0.025109865337 0.016416292602 0 0.025632987531 0.016758298697 0
          0.026156109726 0.017100304793 0 0.02667923192 0.017442310889 0
          0.027202354115 0.017784316985 0 0.027725476309 0.018126323081 0
          0.028248598504 0.018468329177 0 0.028771720698 0.018810335273 0
          0.029294842893 0.019152341368 0 0.029817965087 0.019494347464 0
          0.030341087282 0.01983635356 0 0.030864209476 0.020178359656 0
          0.031387331671 0.020520365752 0 0.031910453865 0.020862371848 0
          0.03243357606 0.021204377944 0 0.032956698254 0.02154638404 0
          0.033479820449 0.021888390135 0 0.023290595627 0.018908943792 0
          0.023775816369 0.019302880121 0 0.024261037112 0.01969681645 0
          0.024746257854 0.020090752779 0 0.025231478596 0.020484689108 0
          0.025716699338 0.020878625437 0 0.026201920081 0.021272561766 0
          0.026687140823 0.021666498095 0 0.027172361565 0.022060434424 0
          0.027657582307 0.022454370753 0 0.02814280305 0.022848307082 0
          0.028628023792 0.023242243411 0 0.029113244534 0.02363617974 0
          0.029598465276 0.024030116069 0 0.030083686019 0.024424052398 0
          0.030568906761 0.024817988727 0 0.031054127503 0.025211925056 0
          0.021213203436 0.021213203436 0 0.021655145174 0.021655145174 0
          0.022097086912 0.022097086912 0 0.02253902865 0.02253902865 0
          0.022980970389 0.022980970389 0 0.023422912127 0.023422912127 0
          0.023864853865 0.023864853865 0 0.024306795603 0.024306795603 0
          0.024748737342 0.024748737342 0 0.02519067908 0.02519067908 0
          0.025632620818 0.025632620818 0 0.026074562556 0.026074562556 0
          0.026516504294 0.026516504294 0 0.026958446033 0.026958446033 0
          0.027400387771 0.027400387771 0 0.027842329509 0.027842329509 0
          0.028284271247 0.028284271247 0 0.018908943792 0.023290595627 0
          0.019302880121 0.023775816369 0 0.01969681645 0.024261037112 0
          0.020090752779 0.024746257854 0 0.020484689108 0.025231478596 0
          0.020878625437 0.025716699338 0 0.021272561766 0.026201920081 0
          0.021666498095 0.026687140823 0 0.022060434424 0.027172361565 0
          0.022454370753 0.027657582307 0 0.022848307082 0.02814280305 0
          0.023242243411 0.028628023792 0 0.02363617974 0.029113244534 0
          0.024030116069 0.029598465276 0 0.024424052398 0.030083686019 0
          0.024817988727 0.030568906761 0 0.025211925056 0.031054127503 0
          0.016416292602 0.025109865337 0 0.016758298697 0.025632987531 0
          0.017100304793 0.026156109726 0 0.017442310889 0.02667923192 0
          0.017784316985 0.027202354115 0 0.018126323081 0.027725476309 0
          0.018468329177 0.028248598504 0 0.018810335273 0.028771720698 0
          0.019152341368 0.029294842893 0 0.019494347464 0.029817965087 0
          0.01983635356 0.030341087282 0 0.020178359656 0.030864209476 0
          0.020520365752 0.031387331671 0 0.020862371848 0.031910453865 0
          0.021204377944 0.03243357606 0 0.02154638404 0.032956698254 0
          0.021888390135 0.033479820449 0 0.013778837792 0.026648520205 0
          0.014065896912 0.027203697709 0 0.014352956033 0.027758875213 0
          0.014640015154 0.028314052718 0 0.014927074274 0.028869230222 0
          0.015214133395 0.029424407726 0 0.015501192516 0.029979585231 0
          0.015788251636 0.030534762735 0 0.016075310757 0.031089940239 0
          0.016362369878 0.031645117743 0 0.016649428998 0.032200295248 0
          0.016936488119 0.032755472752 0 0.01722354724 0.033310650256 0
          0.01751060636 0.03386582776 0 0.017797665481 0.034421005265 0
          0.018084724602 0.034976182769 0 0.018371783722 0.035531360273 0
          0.011042841287 0.027893649032 0 0.01127290048 0.02847476672 0
          0.011502959674 0.029055884408 0 0.011733018867 0.029637002096 0
          0.011963078061 0.030218119785 0 0.012193137254 0.030799237473 0
          0.012423196448 0.031380355161 0 0.012653255641 0.031961472849 0
          0.012883314835 0.032542590537 0 0.013113374028 0.033123708225 0
          0.013343433222 0.033704825914 0 0.013573492415 0.034285943602 0
          0.013803551609 0.03486706129 0 0.014033610802 0.035448178978 0
          0.014263669996 0.036029296666 0 0.014493729189 0.036610414354 0
          0.014723788382 0.037191532042 0 0.0082547464454 0.028841968746 0
          0.0084267203296 0.029442843094 0 0.0085986942139 0.030043717443 0
          0.0087706680982 0.030644591792 0 0.0089426419825 0.031245466141 0
          0.0091146158668 0.03184634049 0 0.009286589751 0.032447214839 0
          0.0094585636353 0.033048089188 0 0.0096305375196 0.033648963537 0
          0.0098025114039 0.034249837885 0 0.0099744852881 0.034850712234 0
          0.010146459172 0.035451586583 0 0.010318433057 0.036052460932 0
          0.010490406941 0.036653335281 0 0.010662380825 0.03725420963 0
          0.01083435471 0.037855083979 0 0.011006328594 0.038455958327 0
          0.0054588915724 0.029499161052 0 0.0055726184801 0.030113726908 0
          0.0056863453879 0.030728292763 0 0.0058000722956 0.031342858618 0
          0.0059137992034 0.031957424474 0 0.0060275261112 0.032571990329 0
          0.0061412530189 0.033186556184 0 0.0062549799267 0.033801122039 0
          0.0063687068344 0.034415687895 0 0.0064824337422 0.03503025375 0
          0.0065961606499 0.035644819605 0 0.0067098875577 0.03625938546 0
          0.0068236144655 0.036873951316 0 0.0069373413732 0.037488517171 0
          0.007051068281 0.038103083026 0 0.0071647951887 0.038717648881 0
          0.0072785220965 0.039332214737 0 0.0026956331369 0.029878647258 0
          0.0027517921606 0.030501119076 0 0.0028079511843 0.031123590894 0
          0.002864110208 0.031746062712 0 0.0029202692317 0.03236853453 0
          0.0029764282554 0.032991006348 0 0.003032587279 0.033613478166 0
          0.0030887463027 0.034235949984 0 0.0031449053264 0.034858421801 0
          0.0032010643501 0.035480893619 0 0.0032572233738 0.036103365437 0
          0.0033133823975 0.036725837255 0 0.0033695414212 0.037348309073 0
          0.0034257004448 0.037970780891 0 0.0034818594685 0.038593252709 0
          0.0035380184922 0.039215724527 0 0.0035941775159 0.039838196345 0
          4.9065389334e-18 0.03 0 5.0598682751e-18 0.030625 0
          5.2131976167e-18 0.03125 0 5.3665269584e-18 0.031875 0
          5.5198563001e-18 0.0325 0 5.6731856417e-18 0.033125 0
          5.8265149834e-18 0.03375 0 5.9798443251e-18 0.034375 0
          6.1331736667e-18 0.035 0 6.2865030084e-18 0.035625 0
          6.4398323501e-18 0.03625 0 6.5931616917e-18 0.036875 0
          6.7464910334e-18 0.0375 0 6.8998203751e-18 0.038125 0
          7.0531497167e-18 0.03875 0 7.2064790584e-18 0.039375 0
          7.3598084001e-18 0.04 0
        </DataArray>
      </Points>
      <Cells>
        <DataArray type="Int64" Name="connectivity" format="ascii" RangeMin="0" RangeMax="288">
          0 17 18 1 1 18
          19 2 2 19 20 3
          3 20 21 4 4 21
          22 5 5 22 23 6
          6 23 24 7 7 24
          25 8 8 25 26 9
          9 26 27 10 10 27
          28 11 11 28 29 12
          12 29 30 13 13 30
          31 14 14 31 32 15
          15 32 33 16 17 34
          35 18 18 35 36 19
          19 36 37 20 20 37
          38 21 21 38 39 22
          22 39 40 23 23 40
          41 24 24 41 42 25
          25 42 43 26 26 43
          44 27 27 44 45 28
          28 45 46 29 29 46
          47 30 30 47 48 31
          31 48 49 32 32 49
          50 33 34 51 52 35
          35 52 53 36 36 53
          54 37 37 54 55 38
          38 55 56 39 39 56
          57 40 40 57 58 41
          41 58 59 42 42 59
          60 43 43 60 61 44
          44 61 62 45 45 62
          63 46 46 63 64 47
          47 64 65 48 48 65
          66 49 49 66 67 50
          51 68 69 52 52 69
          70 53 53 70 71 54
          54 71 72 55 55 72
          73 56 56 73 74 57
          57 74 75 58 58 75
          76 59 59 76 77 60
          60 77 78 61 61 78
          79 62 62 79 80 63
          63 80 81 64 64 81
          82 65 65 82 83 66
          66 83 84 67 68 85
          86 69 69 86 87 70
          70 87 88 71 71 88
          89 72 72 89 90 73
          73 90 91 74 74 91
          92 75 75 92 93 76
          76 93 94 77 77 94
          95 78 78 95 96 79
          79 96 97 80 80 97
          98 81 81 98 99 82
          82 99 100 83 83 100
          101 84 85 102 103 86
          86 103 104 87 87 104
          105 88 88 105 106 89
          89 106 107 90 90 107
          108 91 91 108 109 92
          92 109 110 93 93 110
          111 94 94 111 112 95
          95 112 113 96 96 113
          114 97 97 114 115 98
          98 115 116 99 99 116
          117 100 100 117 118 101
          102 119 120 103 103 120
          121 104 104 121 122 105
          105 122 123 106 106 123
          124 107 107 124 125 108
          108 125 126 109 109 126
          127 110 110 127 128 111
          111 128 129 112 112 129
          130 113 113 130 131 114
          114 131 132 115 115 132
          133 116 116 133 134 117
          117 134 135 118 119 136
          137 120 120 137 138 121
          121 138 139 122 122 139
          140 123 123 140 141 124
          124 141 142 125 125 142
          143 126 126 143 144 127
          127 144 145 128 128 145
          146 129 129 146 147 130
          130 147 148 131 131 148
          149 132 132 149 150 133
          133 150 151 134 134 151
          152 135 136 153 154 137
          137 154 155 138 138 155
          156 139 139 156 157 140
          140 157 158 141 141 158
          159 142 142 159 160 143
          143 160 161 144 144 161
          162 145 145 162 163 146
          146 163 164 147 147 164
          165 148 148 165 166 149
          149 166 167 150 150 167
          168 151 151 168 169 152
          153 170 171 154 154 171
          172 155 155 172 173 156
          156 173 174 157 157 174
          175 158 158 175 176 159
          159 176 177 160 160 177
          178 161 161 178 179 162
          162 179 180 163 163 180
          181 164 164 181 182 165
          165 182 183 166 166 183
          184 167 167 184 185 168
          168 185 186 169 170 187
          188 171 171 188 189 172
          172 189 190 173 173 190
          191 174 174 191 192 175
          175 192 193 176 176 193
          194 177 177 194 195 178
          178 195 196 179 179 196
          197 180 180 197 198 181
          181 198 199 182 182 199
          200 183 183 200 201 184
          184 201 202 185 185 202
          203 186 187 204 205 188
          188 205 206 189 189 206
          207 190 190 207 208 191
          191 208 209 192 192 209
          210 193 193 210 211 194
          194 211 212 195 195 212
          213 196 196 213 214 197
          197 214 215 198 198 215
          216 199 199 216 217 200
          200 217 218 201 201 218
          219 202 202 219 220 203
          204 221 222 205 205 222
          223 206 206 223 224 207
          207 224 225 208 208 225
          226 209 209 226 227 210
          210 227 228 211 211 228
          229 212 212 229 230 213
          213 230 231 214 214 231
          232 215 215 232 233 216
          216 233 234 217 217 234
          235 218 218 235 236 219
          219 236 237 220 221 238
          239 222 222 239 240 223
          223 240 241 224 224 241
          242 225 225 242 243 226
          226 243 244 227 227 244
          245 228 228 245 246 229
          229 246 247 230 230 247
          248 231 231 248 249 232
          232 249 250 233 233 250
          251 234 234 251 252 235
          235 252 253 236 236 253
          254 237 238 255 256 239
          239 256 257 240 240 257
          258 241 241 258 259 242
          242 259 260 243 243 260
          261 244 244 261 262 245
          245 262 263 246 246 263
          264 247 247 264 265 248
          248 265 266 249 249 266
          267 250 250 267 268 251
          251 268 269 252 252 269
          270 253 253 270 271 254
          255 272 273 256 256 273
          274 257 257 274 275 258
          258 275 276 259 259 276
          277 260 260 277 278 261
          261 278 279 262 262 279
          280 263 263 280 281 264
          264 281 282 265 265 282
          283 266 266 283 284 267
          267 284 285 268 268 285
          286 269 269 286 287 270
          270 287 288 271
        </DataArray>
        <DataArray type="Int64" Name="offsets" format="ascii" RangeMin="4" RangeMax="1024">
          4 8 12 16 20 24
          28 32 36 40 44 48
          52 56 60 64 68 72
          76 80 84 88 92 96
          100 104 108 112 116 120
          124 128 132 136 140 144
          148 152 156 160 164 168
          172 176 180 184 188 192
          196 200 204 208 212 216
          220 224 228 232 236 240
          244 248 252 256 260 264
          268 272 276 280 284 288
          292 296 300 304 308 312
          316 320 324 328 332 336
          340 344 348 352 356 360
          364 368 372 376 380 384
          388 392 396 400 404 408
          412 416 420 424 428 432
          436 440 444 448 452 456
          460 464 468 472 476 480
          484 488 492 496 500 504
          508 512 516 520 524 528
          532 536 540 544 548 552
          556 560 564 568 572 576
          580 584 588 592 596 600
          604 608 612 616 620 624
          628 632 636 640 644 648
          652 656 660 664 668 672
          676 680 684 688 692 696
          700 704 708 712 716 720
          724 728 732 736 740 744
          748 752 756 760 764 768
          772 776 780 784 788 792
          796 800 804 808 812 816
          820 824 828 832 836 840
          844 848 852 856 860 864
          868 872 876 880 884 888
          892 896 900 904 908 912
          916 920 924 928 932 936
          940 944 948 952 956 960
          964 968 972 976 980 984
          988 992 996 1000 1004 1008
          1012 1016 1020 1024
        </DataArray>
        <DataArray type="UInt8" Name="types" format="ascii" RangeMin="9" RangeMax="9">
          9 9 9 9 9 9
          9 9 9 9 9 9
          9 9 9 9 9 9
          9 9 9 9 9 9
          9 9 9 9 9 9
          9 9 9 9 9 9
          9 9 9 9 9 9
          9 9 9 9 9 9
          9 9 9 9 9 9
          9 9 9 9 9 9
          9 9 9 9 9 9
          9 9 9 9 9 9
          9 9 9 9 9 9
          9 9 9 9 9 9
          9 9 9 9 9 9
          9 9 9 9 9 9
          9 9 9 9 9 9
          9 9 9 9 9 9
          9 9 9 9 9 9
          9 9 9 9 9 9
          9 9 9 9 9 9
          9 9 9 9 9 9
          9 9 9 9 9 9
          9 9 9 9 9 9
          9 9 9 9 9 9
          9 9 9 9 9 9
          9 9 9 9 9 9
          9 9 9 9 9 9
          9 9 9 9 9 9
          9 9 9 9 9 9
          9 9 9 9 9 9
          9 9 9 9 9 9
          9 9 9 9 9 9
          9 9 9 9 9 9
          9 9 9 9 9 9
          9 9 9 9 9 9
          9 9 9 9 9 9
          9 9 9 9 9 9
          9 9 9 9 9 9
          9 9 9 9 9 9
          9 9 9 9 9 9
          9 9 9 9 9 9
          9 9 9 9
        </DataArray>
      </Cells>
    </Piece>
  </UnstructuredGrid>
</VTKFile>
